H96 C88 N16 O8
1.0
  14.9466859165839328    0.0000000000000000   -7.4769135584806277
  -0.0000000000000005    7.3864000000000001    0.0000000000000005
   0.0000000000000000    0.0000000000000000   17.5904999999999987
H C N O
96 88 16 8
direct
   0.2990000000000000    0.1731000000000000    0.1530000000000000 H
   0.7010000000000001    0.1731000000000000    0.3470000000000000 H
   0.7989999999999999    0.6731000000000000    0.1530000000000000 H
   0.2010000000000000    0.6731000000000000    0.3470000000000000 H
   0.7010000000000001    0.8269000000000000    0.8470000000000000 H
   0.2990000000000000    0.8269000000000000    0.6530000000000000 H
   0.1909673124172446    0.4134728960782559    0.8427355653440491 H
   0.7989999999999999    0.3269000000000000    0.6530000000000000 H
   0.4206000000000000    0.3599000000000000    0.2331000000000000 H
   0.5794000000000000    0.3599000000000000    0.2669000000000000 H
   0.9206000000000000    0.8599000000000000    0.2331000000000000 H
   0.0794000000000000    0.8599000000000000    0.2669000000000000 H
   0.5794000000000000    0.6401000000000000    0.7669000000000000 H
   0.4206000000000000    0.6401000000000000    0.7331000000000000 H
   0.0551846345225312    0.2722391350417604    0.7566071604296609 H
   0.9206000000000000    0.1401000000000000    0.7331000000000000 H
   0.7249000000000000    0.4343000000000000    0.4858000000000000 H
   0.2751000000000000    0.4343000000000000    0.0142000000000000 H
   0.2248999999999999    0.9343000000000000    0.4858000000000000 H
   0.7751000000000000    0.9343000000000000    0.0142000000000000 H
   0.2751000000000000    0.5657000000000000    0.5142000000000000 H
   0.7249000000000000    0.5657000000000000    0.9858000000000000 H
   0.7339308267216303   -0.0454885983880787    0.4967008754795782 H
   0.2248999999999999    0.0657000000000000    0.9858000000000000 H
   0.7124000000000000    0.7564000000000000    0.4132000000000000 H
   0.2876000000000000    0.7564000000000000    0.0868000000000000 H
   0.2124000000000001    0.2564000000000000    0.4132000000000000 H
   0.7876000000000000    0.2564000000000000    0.0868000000000000 H
   0.2876000000000000    0.2436000000000000    0.5868000000000000 H
   0.7124000000000000    0.2436000000000000    0.9132000000000000 H
   0.8044142339745501    0.6177202740044951    0.5939469585276018 H
   0.2124000000000001    0.7436000000000000    0.9132000000000000 H
   0.6333000000000000    0.8552999999999999    0.4247000000000000 H
   0.3667000000000000    0.8552999999999999    0.0753000000000000 H
   0.1333000000000000    0.3552999999999999    0.4247000000000000 H
   0.8667000000000000    0.3552999999999999    0.0753000000000000 H
   0.3667000000000000    0.1447000000000001    0.5752999999999999 H
   0.6333000000000000    0.1447000000000001    0.9247000000000001 H
   0.8738255226757088    0.4925282914783704    0.5783287323899416 H
   0.1333000000000000    0.6447000000000001    0.9247000000000001 H
   0.6181000000000000    0.7907000000000000    0.3324000000000000 H
   0.3819000000000000    0.7907000000000000    0.1676000000000000 H
   0.1181000000000001    0.2907000000000000    0.3324000000000000 H
   0.8819000000000000    0.2907000000000000    0.1676000000000000 H
   0.3819000000000000    0.2093000000000000    0.6676000000000000 H
   0.6181000000000000    0.2093000000000000    0.8324000000000000 H
   0.8943381848967433    0.5508058314196859    0.6728869010714504 H
   0.1181000000000001    0.7093000000000000    0.8324000000000000 H
   0.3987000000000000    0.6394000000000000    0.3169000000000000 H
   0.6012999999999999    0.6394000000000000    0.1831000000000000 H
   0.8987000000000001    0.1394000000000000    0.3169000000000000 H
   0.1013000000000000    0.1394000000000000    0.1831000000000000 H
   0.6012999999999999    0.3606000000000000    0.6831000000000000 H
   0.3987000000000000    0.3606000000000000    0.8169000000000000 H
   0.1385809110374440    0.9740978055751038    0.6989464028429195 H
   0.8987000000000001    0.8606000000000000    0.8169000000000000 H
   0.4727000000000000    0.7949000000000001    0.3404000000000000 H
   0.5273000000000000    0.7949000000000001    0.1596000000000000 H
   0.9727000000000000    0.2949000000000002    0.3404000000000000 H
   0.0273000000000000    0.2949000000000002    0.1596000000000000 H
   0.5273000000000000    0.2050999999999999    0.6596000000000000 H
   0.4727000000000000    0.2050999999999999    0.8404000000000000 H
   0.0523610603741193    0.8469626359581665    0.6702523056252611 H
   0.9727000000000000    0.7050999999999999    0.8404000000000000 H
   0.4575000000000000    0.6965000000000000    0.4140000000000000 H
   0.5425000000000000    0.6965000000000000    0.0860000000000000 H
   0.9575000000000000    0.1964999999999999    0.4140000000000000 H
   0.0425000000000000    0.1964999999999999    0.0860000000000000 H
   0.5425000000000000    0.3035000000000000    0.5860000000000001 H
   0.4575000000000000    0.3035000000000000    0.9139999999999999 H
   0.0757742357822036    0.9385266779512947    0.6001433492321446 H
   0.9575000000000000    0.8035000000000000    0.9139999999999999 H
   0.4313000000000000    0.1459000000000000    0.4498000000000000 H
   0.5687000000000000    0.1459000000000000    0.0502000000000000 H
   0.9313000000000000    0.6459000000000000    0.4498000000000000 H
   0.0687000000000000    0.6459000000000000    0.0502000000000000 H
   0.5687000000000000    0.8541000000000000    0.5502000000000000 H
   0.4313000000000000    0.8541000000000000    0.9498000000000000 H
   0.0630113874833079    0.4867478058748612    0.5477820321164836 H
   0.9313000000000000    0.3541000000000000    0.9498000000000000 H
   0.3093000000000000    0.9601999999999999    0.3688000000000000 H
   0.6907000000000000    0.9601999999999999    0.1312000000000000 H
   0.8093000000000000    0.4602000000000000    0.3688000000000000 H
   0.1907000000000000    0.4602000000000000    0.1312000000000000 H
   0.6907000000000000    0.0398000000000000    0.6312000000000000 H
   0.3093000000000000    0.0398000000000000    0.8688000000000000 H
   0.1990935930796477    0.6267577246750626    0.6347677308718677 H
   0.8093000000000000    0.5398000000000001    0.8688000000000000 H
   0.2443000000000000    0.9706000000000000    0.2206000000000000 H
   0.7557000000000000    0.9706000000000000    0.2794000000000000 H
   0.7443000000000000    0.4706000000000000    0.2206000000000000 H
   0.2557000000000000    0.4706000000000000    0.2794000000000000 H
   0.7557000000000000    0.0294000000000000    0.7794000000000000 H
   0.2443000000000000    0.0294000000000000    0.7206000000000000 H
   0.2622136314294259    0.5936757464968440    0.7821686455273937 H
   0.7443000000000000    0.5294000000000000    0.7206000000000000 H
   0.5996800000000000    0.3005500000000000    0.4483900000000000 C
   0.4003200000000000    0.3005500000000000    0.0516100000000000 C
   0.0996800000000000    0.8005500000000000    0.4483900000000000 C
   0.9003200000000000    0.8005500000000000    0.0516100000000000 C
   0.4003200000000000    0.6994500000000000    0.5516099999999999 C
   0.5996800000000000    0.6994500000000000    0.9483900000000001 C
   0.8687260760025737    0.0422291002938923    0.5381808741251264 C
   0.0996800000000000    0.1994500000000000    0.9483900000000001 C
   0.3261400000000000    0.1670600000000000    0.2132700000000000 C
   0.6738600000000000    0.1670600000000000    0.2867300000000000 C
   0.8261400000000000    0.6670600000000000    0.2132700000000000 C
   0.1738600000000000    0.6670600000000000    0.2867300000000000 C
   0.6738600000000000    0.8329400000000000    0.7867300000000000 C
   0.3261400000000000    0.8329400000000000    0.7132700000000000 C
   0.1647579465581791    0.4289577039929519    0.7828611351701678 C
   0.8261400000000000    0.3329400000000000    0.7132700000000000 C
   0.3983800000000000    0.2779100000000000    0.2606800000000000 C
   0.6016200000000000    0.2779100000000000    0.2393200000000000 C
   0.8983800000000000    0.7779100000000000    0.2606800000000000 C
   0.1016200000000000    0.7779100000000000    0.2393200000000000 C
   0.6016200000000000    0.7220900000000000    0.7393200000000000 C
   0.3983800000000000    0.7220900000000000    0.7606800000000000 C
   0.0841029526230486    0.3451757642328940    0.7318743077776485 C
   0.8983800000000000    0.2220900000000000    0.7606800000000000 C
   0.6616700000000000    0.4406600000000000    0.4542000000000000 C
   0.3383300000000000    0.4406600000000000    0.0458000000000000 C
   0.1616700000000000    0.9406600000000001    0.4542000000000000 C
   0.8383300000000000    0.9406600000000001    0.0458000000000000 C
   0.3383300000000000    0.5593399999999999    0.5458000000000001 C
   0.6616700000000000    0.5593399999999999    0.9541999999999999 C
   0.7956544439070290   -0.0739700030863126    0.5276605813383797 C
   0.1616700000000000    0.0593400000000000    0.9541999999999999 C
   0.6148800000000000    0.5830800000000000    0.4071100000000000 C
   0.3851200000000000    0.5830800000000000    0.0928900000000000 C
   0.1148799999999999    0.0830800000000000    0.4071100000000000 C
   0.8851200000000000    0.0830800000000000    0.0928900000000000 C
   0.3851200000000000    0.4169200000000000    0.5928899999999999 C
   0.6148800000000000    0.4169200000000000    0.9071100000000001 C
   0.9153259684618944    0.7541401597508345    0.6057291697302394 C
   0.1148799999999999    0.9169200000000000    0.9071100000000001 C
   0.6474500000000000    0.7616100000000000    0.3931500000000000 C
   0.3525500000000000    0.7616100000000000    0.1068500000000000 C
   0.1474500000000001    0.2616100000000001    0.3931500000000000 C
   0.8525500000000000    0.2616100000000001    0.1068500000000000 C
   0.3525500000000000    0.2383900000000000    0.6068500000000000 C
   0.6474500000000000    0.2383900000000000    0.8931500000000000 C
   0.8679304065946893    0.5897670172779074    0.6133875043689934 C
   0.1474500000000001    0.7383900000000000    0.8931500000000000 C
   0.4578900000000000    0.6798600000000000    0.3589000000000000 C
   0.5421100000000000    0.6798600000000000    0.1411000000000000 C
   0.9578900000000000    0.1798600000000001    0.3589000000000000 C
   0.0421100000000000    0.1798600000000001    0.1411000000000000 C
   0.5421100000000000    0.3201400000000000    0.6411000000000000 C
   0.4578900000000000    0.3201400000000000    0.8589000000000000 C
   0.0768181057121533    0.9550509188266992    0.6558528214768413 C
   0.9578900000000000    0.8201400000000000    0.8589000000000000 C
   0.4379900000000000    0.2682900000000000    0.3488100000000000 C
   0.5620100000000000    0.2682900000000000    0.1511900000000000 C
   0.9379900000000000    0.7682899999999999    0.3488100000000000 C
   0.0620100000000000    0.7682899999999999    0.1511900000000000 C
   0.5620100000000000    0.7317100000000001    0.6511899999999999 C
   0.4379900000000000    0.7317100000000001    0.8488100000000001 C
   0.0459202482025492    0.3685679457496772    0.6443509855679516 C
   0.9379900000000000    0.2317100000000000    0.8488100000000001 C
   0.4047000000000000    0.1508100000000000    0.3895100000000000 C
   0.5952999999999999    0.1508100000000000    0.1104900000000000 C
   0.9047000000000001    0.6508100000000000    0.3895100000000000 C
   0.0953000000000000    0.6508100000000000    0.1104900000000000 C
   0.5952999999999999    0.8491900000000000    0.6104900000000000 C
   0.4047000000000000    0.8491900000000000    0.8895100000000000 C
   0.0887859269753139    0.4725655782268434    0.6077211667707451 C
   0.9047000000000001    0.3491900000000000    0.8895100000000000 C
   0.3323200000000000    0.0408100000000000    0.3412600000000000 C
   0.6676800000000001    0.0408100000000000    0.1587400000000000 C
   0.8323199999999999    0.5408100000000000    0.3412600000000000 C
   0.1676800000000000    0.5408100000000000    0.1587400000000000 C
   0.6676800000000001    0.9591900000000000    0.6587400000000000 C
   0.3323200000000000    0.9591900000000000    0.8412600000000000 C
   0.1695058520961918    0.5554612375990476    0.6595160858584916 C
   0.8323199999999999    0.4591900000000000    0.8412600000000000 C
   0.2933000000000000    0.0475000000000000    0.2532800000000000 C
   0.7067000000000000    0.0475000000000000    0.2467200000000000 C
   0.7933000000000000    0.5475000000000000    0.2532800000000000 C
   0.2067000000000000    0.5475000000000000    0.2467200000000000 C
   0.7067000000000000    0.9525000000000000    0.7467200000000001 C
   0.2933000000000000    0.9525000000000000    0.7532799999999999 C
   0.2073589549612914    0.5351618595178619    0.7470000914860014 C
   0.7933000000000000    0.4525000000000000    0.7532799999999999 C
   0.5146800000000000    0.3750400000000000    0.3990400000000000 N
   0.4853200000000000    0.3750400000000000    0.1009600000000000 N
   0.0146800000000000    0.8750400000000000    0.3990400000000000 N
   0.9853200000000000    0.8750400000000000    0.1009600000000000 N
   0.4853200000000000    0.6249600000000000    0.6009599999999999 N
   0.5146800000000000    0.6249600000000000    0.8990400000000001 N
   0.9460424501771516   -0.0609968921739222    0.5842649177218183 N
   0.0146800000000000    0.1249600000000000    0.8990400000000001 N
   0.5247200000000000    0.5438100000000000    0.3669900000000000 N
   0.4752800000000000    0.5438100000000000    0.1330100000000000 N
   0.0247199999999999    0.0438100000000001    0.3669900000000000 N
   0.9752800000000000    0.0438100000000001    0.1330100000000000 N
   0.4752800000000000    0.4561900000000000    0.6330100000000001 N
   0.5247200000000000    0.4561900000000000    0.8669899999999999 N
   1.0074861512384292    0.7611327544327355    0.6466993555533436 N
   0.0247199999999999    0.9561900000000000    0.8669899999999999 N
   0.6113900000000000    0.1443400000000000    0.4758100000000000 O
   0.3886100000000000    0.1443400000000000    0.0241900000000000 O
   0.1113900000000001    0.6443400000000000    0.4758100000000000 O
   0.8886100000000000    0.6443400000000000    0.0241900000000000 O
   0.3886100000000000    0.8556600000000000    0.5241899999999999 O
   0.6113900000000000    0.8556600000000000    0.9758100000000001 O
   0.8705989820949500    0.2001806291930694    0.5165343435959009 O
   0.1113900000000001    0.3556600000000000    0.9758100000000001 O
