H96 C88 N16 O8
1.0
  14.9466859165839328    0.0000000000000000   -7.4769135584806277
  -0.0000000000000005    7.3864000000000001    0.0000000000000005
   0.0000000000000000    0.0000000000000000   17.5904999999999987
H C N O
96 88 16 8
direct
   0.2990000000000000    0.1731000000000000    0.1530000000000000 H
   0.7010000000000001    0.1731000000000000    0.3470000000000000 H
   0.7989999999999999    0.6731000000000000    0.1530000000000000 H
   0.2010000000000000    0.6731000000000000    0.3470000000000000 H
   0.7010000000000001    0.8269000000000000    0.8470000000000000 H
   0.2489181302589791    0.6006600818134665    0.6317124976037806 H
   0.2010000000000000    0.3269000000000000    0.8470000000000000 H
   0.7989999999999999    0.3269000000000000    0.6530000000000000 H
   0.4206000000000000    0.3599000000000000    0.2331000000000000 H
   0.5794000000000000    0.3599000000000000    0.2669000000000000 H
   0.9206000000000000    0.8599000000000000    0.2331000000000000 H
   0.0794000000000000    0.8599000000000000    0.2669000000000000 H
   0.5794000000000000    0.6401000000000000    0.7669000000000000 H
   0.4003835235175476    0.5619178511986613    0.7245069044588640 H
   0.0794000000000000    0.1401000000000000    0.7669000000000000 H
   0.9206000000000000    0.1401000000000000    0.7331000000000000 H
   0.7249000000000000    0.4343000000000000    0.4858000000000000 H
   0.2751000000000000    0.4343000000000000    0.0142000000000000 H
   0.2248999999999999    0.9343000000000000    0.4858000000000000 H
   0.7751000000000000    0.9343000000000000    0.0142000000000000 H
   0.2751000000000000    0.5657000000000000    0.5142000000000000 H
   0.6822986662520192    0.8053673793917258    0.9676921298479499 H
   0.7751000000000000    0.0657000000000000    0.5142000000000000 H
   0.2248999999999999    0.0657000000000000    0.9858000000000000 H
   0.7124000000000000    0.7564000000000000    0.4132000000000000 H
   0.2876000000000000    0.7564000000000000    0.0868000000000000 H
   0.2124000000000001    0.2564000000000000    0.4132000000000000 H
   0.7876000000000000    0.2564000000000000    0.0868000000000000 H
   0.2876000000000000    0.2436000000000000    0.5868000000000000 H
   0.7510615414745981    0.5137734633199981    0.9296332454246999 H
   0.7876000000000000    0.7436000000000000    0.5868000000000000 H
   0.2124000000000001    0.7436000000000000    0.9132000000000000 H
   0.6333000000000000    0.8552999999999999    0.4247000000000000 H
   0.3667000000000000    0.8552999999999999    0.0753000000000000 H
   0.1333000000000000    0.3552999999999999    0.4247000000000000 H
   0.8667000000000000    0.3552999999999999    0.0753000000000000 H
   0.3667000000000000    0.1447000000000001    0.5752999999999999 H
   0.7069962877165330    0.3480924900169725    0.9560249067870406 H
   0.8667000000000000    0.6447000000000001    0.5752999999999999 H
   0.1333000000000000    0.6447000000000001    0.9247000000000001 H
   0.6181000000000000    0.7907000000000000    0.3324000000000000 H
   0.3819000000000000    0.7907000000000000    0.1676000000000000 H
   0.1181000000000001    0.2907000000000000    0.3324000000000000 H
   0.8819000000000000    0.2907000000000000    0.1676000000000000 H
   0.3819000000000000    0.2093000000000000    0.6676000000000000 H
   0.6778705865435096    0.3886588167499314    0.8578057308732275 H
   0.8819000000000000    0.7093000000000000    0.6676000000000000 H
   0.1181000000000001    0.7093000000000000    0.8324000000000000 H
   0.3987000000000000    0.6394000000000000    0.3169000000000000 H
   0.6012999999999999    0.6394000000000000    0.1831000000000000 H
   0.8987000000000001    0.1394000000000000    0.3169000000000000 H
   0.1013000000000000    0.1394000000000000    0.1831000000000000 H
   0.6012999999999999    0.3606000000000000    0.6831000000000000 H
   0.4504796593174275    0.2977059729265555    0.8389091547598977 H
   0.1013000000000000    0.8606000000000000    0.6831000000000000 H
   0.8987000000000001    0.8606000000000000    0.8169000000000000 H
   0.4727000000000000    0.7949000000000001    0.3404000000000000 H
   0.5273000000000000    0.7949000000000001    0.1596000000000000 H
   0.9727000000000000    0.2949000000000002    0.3404000000000000 H
   0.0273000000000000    0.2949000000000002    0.1596000000000000 H
   0.5273000000000000    0.2050999999999999    0.6596000000000000 H
   0.5529882774021238    0.2379100530336137    0.8745268588098687 H
   0.0273000000000000    0.7050999999999999    0.6596000000000000 H
   0.9727000000000000    0.7050999999999999    0.8404000000000000 H
   0.4575000000000000    0.6965000000000000    0.4140000000000000 H
   0.5425000000000000    0.6965000000000000    0.0860000000000000 H
   0.9575000000000000    0.1964999999999999    0.4140000000000000 H
   0.0425000000000000    0.1964999999999999    0.0860000000000000 H
   0.5425000000000000    0.3035000000000000    0.5860000000000001 H
   0.5155108813653247    0.3077480384144865    0.9386577610312274 H
   0.0425000000000000    0.8035000000000000    0.5860000000000001 H
   0.9575000000000000    0.8035000000000000    0.9139999999999999 H
   0.4313000000000000    0.1459000000000000    0.4498000000000000 H
   0.5687000000000000    0.1459000000000000    0.0502000000000000 H
   0.9313000000000000    0.6459000000000000    0.4498000000000000 H
   0.0687000000000000    0.6459000000000000    0.0502000000000000 H
   0.5687000000000000    0.8541000000000000    0.5502000000000000 H
   0.3567724006383972    0.7580732338954538    0.9181217408176130 H
   0.0687000000000000    0.3541000000000000    0.5502000000000000 H
   0.9313000000000000    0.3541000000000000    0.9498000000000000 H
   0.3093000000000000    0.9601999999999999    0.3688000000000000 H
   0.6907000000000000    0.9601999999999999    0.1312000000000000 H
   0.8093000000000000    0.4602000000000000    0.3688000000000000 H
   0.1907000000000000    0.4602000000000000    0.1312000000000000 H
   0.6907000000000000    0.0398000000000000    0.6312000000000000 H
   0.4523239619557610   -0.0705672754907510    0.9295929166501605 H
   0.1907000000000000    0.5398000000000001    0.6312000000000000 H
   0.8093000000000000    0.5398000000000001    0.8688000000000000 H
   0.2443000000000000    0.9706000000000000    0.2206000000000000 H
   0.7557000000000000    0.9706000000000000    0.2794000000000000 H
   0.7443000000000000    0.4706000000000000    0.2206000000000000 H
   0.2557000000000000    0.4706000000000000    0.2794000000000000 H
   0.7557000000000000    0.0294000000000000    0.7794000000000000 H
   0.3986020629755496   -0.1453390339564606    0.7861867193521173 H
   0.2557000000000000    0.5294000000000000    0.7794000000000000 H
   0.7443000000000000    0.5294000000000000    0.7206000000000000 H
   0.5996800000000000    0.3005500000000000    0.4483900000000000 C
   0.4003200000000000    0.3005500000000000    0.0516100000000000 C
   0.0996800000000000    0.8005500000000000    0.4483900000000000 C
   0.9003200000000000    0.8005500000000000    0.0516100000000000 C
   0.4003200000000000    0.6994500000000000    0.5516099999999999 C
   0.5408064685028543    0.7945043524704710    0.9233655660221914 C
   0.9003200000000000    0.1994500000000000    0.5516099999999999 C
   0.0996800000000000    0.1994500000000000    0.9483900000000001 C
   0.3261400000000000    0.1670600000000000    0.2132700000000000 C
   0.6738600000000000    0.1670600000000000    0.2867300000000000 C
   0.8261400000000000    0.6670600000000000    0.2132700000000000 C
   0.1738600000000000    0.6670600000000000    0.2867300000000000 C
   0.6738600000000000    0.8329400000000000    0.7867300000000000 C
   0.2709296266710259    0.6333503315352288    0.6898026062981619 C
   0.1738600000000000    0.3329400000000000    0.7867300000000000 C
   0.8261400000000000    0.3329400000000000    0.7132700000000000 C
   0.3983800000000000    0.2779100000000000    0.2606800000000000 C
   0.6016200000000000    0.2779100000000000    0.2393200000000000 C
   0.8983800000000000    0.7779100000000000    0.2606800000000000 C
   0.1016200000000000    0.7779100000000000    0.2393200000000000 C
   0.6016200000000000    0.7220900000000000    0.7393200000000000 C
   0.3608814017117012    0.6104417295226656    0.7447410683058584 C
   0.1016200000000000    0.2220900000000000    0.7393200000000000 C
   0.8983800000000000    0.2220900000000000    0.7606800000000000 C
   0.6616700000000000    0.4406600000000000    0.4542000000000000 C
   0.3383300000000000    0.4406600000000000    0.0458000000000000 C
   0.1616700000000000    0.9406600000000001    0.4542000000000000 C
   0.8383300000000000    0.9406600000000001    0.0458000000000000 C
   0.3383300000000000    0.5593399999999999    0.5458000000000001 C
   0.6291113823178773    0.7358851976627120    0.9403608271514254 C
   0.8383300000000000    0.0593400000000000    0.5458000000000001 C
   0.1616700000000000    0.0593400000000000    0.9541999999999999 C
   0.6148800000000000    0.5830800000000000    0.4071100000000000 C
   0.3851200000000000    0.5830800000000000    0.0928900000000000 C
   0.1148799999999999    0.0830800000000000    0.4071100000000000 C
   0.8851200000000000    0.0830800000000000    0.0928900000000000 C
   0.3851200000000000    0.4169200000000000    0.5928899999999999 C
   0.6237808342221085    0.5652051094907695    0.9108933357822162 C
   0.8851200000000000    0.9169200000000000    0.5928899999999999 C
   0.1148799999999999    0.9169200000000000    0.9071100000000001 C
   0.6474500000000000    0.7616100000000000    0.3931500000000000 C
   0.3525500000000000    0.7616100000000000    0.1068500000000000 C
   0.1474500000000001    0.2616100000000001    0.3931500000000000 C
   0.8525500000000000    0.2616100000000001    0.1068500000000000 C
   0.3525500000000000    0.2383900000000000    0.6068500000000000 C
   0.6961005385473275    0.4435469652339807    0.9138291092516926 C
   0.8525500000000000    0.7383900000000000    0.6068500000000000 C
   0.1474500000000001    0.7383900000000000    0.8931500000000000 C
   0.4578900000000000    0.6798600000000000    0.3589000000000000 C
   0.5421100000000000    0.6798600000000000    0.1411000000000000 C
   0.9578900000000000    0.1798600000000001    0.3589000000000000 C
   0.0421100000000000    0.1798600000000001    0.1411000000000000 C
   0.5421100000000000    0.3201400000000000    0.6411000000000000 C
   0.5117370276475574    0.3225532916990577    0.8817878980757741 C
   0.0421100000000000    0.8201400000000000    0.6411000000000000 C
   0.9578900000000000    0.8201400000000000    0.8589000000000000 C
   0.4379900000000000    0.2682900000000000    0.3488100000000000 C
   0.5620100000000000    0.2682900000000000    0.1511900000000000 C
   0.9379900000000000    0.7682899999999999    0.3488100000000000 C
   0.0620100000000000    0.7682899999999999    0.1511900000000000 C
   0.5620100000000000    0.7317100000000001    0.6511899999999999 C
   0.3928076471097591    0.6588491305823055    0.8296050571655669 C
   0.0620100000000000    0.2317100000000000    0.6511899999999999 C
   0.9379900000000000    0.2317100000000000    0.8488100000000001 C
   0.4047000000000000    0.1508100000000000    0.3895100000000000 C
   0.5952999999999999    0.1508100000000000    0.1104900000000000 C
   0.9047000000000001    0.6508100000000000    0.3895100000000000 C
   0.0953000000000000    0.6508100000000000    0.1104900000000000 C
   0.5952999999999999    0.8491900000000000    0.6104900000000000 C
   0.3349493444770548    0.7269079490477192    0.8598622002221415 C
   0.0953000000000000    0.3491900000000000    0.6104900000000000 C
   0.9047000000000001    0.3491900000000000    0.8895100000000000 C
   0.3323200000000000    0.0408100000000000    0.3412600000000000 C
   0.6676800000000001    0.0408100000000000    0.1587400000000000 C
   0.8323199999999999    0.5408100000000000    0.3412600000000000 C
   0.1676800000000000    0.5408100000000000    0.1587400000000000 C
   0.6676800000000001    0.9591900000000000    0.6587400000000000 C
   0.2450863537092641    0.7489387815717227    0.8041809839000083 C
   0.1676800000000000    0.4591900000000000    0.6587400000000000 C
   0.8323199999999999    0.4591900000000000    0.8412600000000000 C
   0.2933000000000000    0.0475000000000000    0.2532800000000000 C
   0.7067000000000000    0.0475000000000000    0.2467200000000000 C
   0.7933000000000000    0.5475000000000000    0.2532800000000000 C
   0.2067000000000000    0.5475000000000000    0.2467200000000000 C
   0.7067000000000000    0.9525000000000000    0.7467200000000001 C
   0.2129470850168692    0.7036657796469736    0.7191256667234693 C
   0.2067000000000000    0.4525000000000000    0.7467200000000001 C
   0.7933000000000000    0.4525000000000000    0.7532799999999999 C
   0.5146800000000000    0.3750400000000000    0.3990400000000000 N
   0.4853200000000000    0.3750400000000000    0.1009600000000000 N
   0.0146800000000000    0.8750400000000000    0.3990400000000000 N
   0.9853200000000000    0.8750400000000000    0.1009600000000000 N
   0.4853200000000000    0.6249600000000000    0.6009599999999999 N
   0.4856001597848054    0.6439936122558009    0.8866794956605306 N
   0.9853200000000000    0.1249600000000000    0.6009599999999999 N
   0.0146800000000000    0.1249600000000000    0.8990400000000001 N
   0.5247200000000000    0.5438100000000000    0.3669900000000000 N
   0.4752800000000000    0.5438100000000000    0.1330100000000000 N
   0.0247199999999999    0.0438100000000001    0.3669900000000000 N
   0.9752800000000000    0.0438100000000001    0.1330100000000000 N
   0.4752800000000000    0.4561900000000000    0.6330100000000001 N
   0.5359966980979548    0.5079926824965499    0.8717832063843263 N
   0.9752800000000000    0.9561900000000000    0.6330100000000001 N
   0.0247199999999999    0.9561900000000000    0.8669899999999999 N
   0.6113900000000000    0.1443400000000000    0.4758100000000000 O
   0.3886100000000000    0.1443400000000000    0.0241900000000000 O
   0.1113900000000001    0.6443400000000000    0.4758100000000000 O
   0.8886100000000000    0.6443400000000000    0.0241900000000000 O
   0.3886100000000000    0.8556600000000000    0.5241899999999999 O
   0.5123494527660702    0.9416340154703916    0.9337124126401917 O
   0.8886100000000000    0.3556600000000000    0.5241899999999999 O
   0.1113900000000001    0.3556600000000000    0.9758100000000001 O
