H384 C352 N64 O32
1.0
  14.9466859165839328    0.0000000000000000   -7.4769135584806277
  -0.0000000000000009   14.7728000000000002    0.0000000000000009
   0.0000000000000000    0.0000000000000000   35.1809999999999974
H C N O
384 352 64 32
direct
   0.2990000000000000    0.0865500000000000    0.0765000000000000 H
   0.2990000000000000    0.0865500000000000    0.5765000000000001 H
   0.2990000000000000    0.5865500000000000    0.0765000000000000 H
   0.2990000000000000    0.5865500000000000    0.5765000000000000 H
   0.7010000000000002    0.0865500000000000    0.1735000000000000 H
   0.7010000000000002    0.0865500000000000    0.6735000000000000 H
   0.7010000000000002    0.5865500000000000    0.1735000000000000 H
   0.7010000000000002    0.5865500000000000    0.6735000000000000 H
   0.7990000000000000    0.3365500000000000    0.0765000000000000 H
   0.7990000000000000    0.3365500000000000    0.5765000000000000 H
   0.7990000000000000    0.8365500000000001    0.0765000000000000 H
   0.7990000000000000    0.8365500000000001    0.5765000000000000 H
   0.2010000000000000    0.3365500000000000    0.1735000000000000 H
   0.2010000000000000    0.3365500000000000    0.6735000000000000 H
   0.2010000000000000    0.8365500000000001    0.1735000000000000 H
   0.2010000000000000    0.8365500000000001    0.6735000000000000 H
   0.7010000000000002    0.4134500000000000    0.4235000000000000 H
   0.7010000000000002    0.4134500000000000    0.9235000000000001 H
   0.7010000000000002    0.9134500000000001    0.4235000000000000 H
   0.7010000000000002    0.9134500000000001    0.9235000000000001 H
   0.2990000000000000    0.4134500000000000    0.3265000000000001 H
   0.2990000000000000    0.4134500000000000    0.8265000000000001 H
   0.2990000000000000    0.9134500000000001    0.3265000000000000 H
   0.2990000000000000    0.9134500000000001    0.8265000000000000 H
   0.2010000000000000    0.1634500000000000    0.4235000000000000 H
   0.2010000000000000    0.1634500000000000    0.9235000000000000 H
   0.2010000000000000    0.6634500000000000    0.4235000000000000 H
   0.2010000000000000    0.6634500000000000    0.9235000000000000 H
   0.7990000000000000    0.1634500000000000    0.3265000000000000 H
   0.7990000000000000    0.1634500000000000    0.8265000000000000 H
   0.7990000000000000    0.6634500000000000    0.3265000000000001 H
   0.7990000000000000    0.6634500000000000    0.8265000000000000 H
   0.4206000000000000    0.1799500000000000    0.1165500000000000 H
   0.4206000000000000    0.1799500000000000    0.6165500000000000 H
   0.4206000000000000    0.6799500000000001    0.1165500000000000 H
   0.4206000000000000    0.6799500000000001    0.6165500000000000 H
   0.5794000000000001    0.1799500000000000    0.1334500000000000 H
   0.5794000000000001    0.1799500000000000    0.6334500000000000 H
   0.5794000000000001    0.6799500000000001    0.1334500000000000 H
   0.5794000000000001    0.6799500000000001    0.6334500000000000 H
   0.9206000000000001    0.4299500000000001    0.1165500000000000 H
   0.9206000000000001    0.4299500000000001    0.6165500000000000 H
   0.9206000000000002    0.9299500000000002    0.1165500000000000 H
   0.9206000000000002    0.9299500000000002    0.6165500000000000 H
   0.0794000000000000    0.4299500000000001    0.1334500000000000 H
   0.0794000000000000    0.4299500000000001    0.6334500000000001 H
   0.0794000000000000    0.9299500000000002    0.1334500000000000 H
   0.0794000000000000    0.9299500000000002    0.6334500000000001 H
   0.5794000000000001    0.3200500000000000    0.3834500000000001 H
   0.5794000000000001    0.3200500000000000    0.8834500000000001 H
   0.5794000000000001    0.8200500000000001    0.3834500000000000 H
   0.5794000000000001    0.8200500000000001    0.8834500000000001 H
   0.4206000000000000    0.3200500000000000    0.3665500000000000 H
   0.4206000000000000    0.3200500000000000    0.8665500000000000 H
   0.4206000000000000    0.8200500000000001    0.3665500000000000 H
   0.4206000000000000    0.8200500000000001    0.8665500000000000 H
   0.0794000000000000    0.0700500000000000    0.3834500000000000 H
   0.0794000000000000    0.0700500000000000    0.8834500000000001 H
   0.0794000000000000    0.5700500000000001    0.3834500000000000 H
   0.0794000000000000    0.5700500000000001    0.8834500000000001 H
   0.9206000000000001    0.0700500000000000    0.3665500000000000 H
   0.9206000000000001    0.0700500000000000    0.8665500000000000 H
   0.9206000000000001    0.5700500000000001    0.3665500000000000 H
   0.9206000000000001    0.5700500000000001    0.8665500000000000 H
   0.7249000000000001    0.2171500000000000    0.2429000000000000 H
   0.7249000000000001    0.2171500000000000    0.7429000000000000 H
   0.7249000000000001    0.7171500000000001    0.2429000000000000 H
   0.7249000000000001    0.7171500000000001    0.7429000000000000 H
   0.2751000000000001    0.2171500000000000    0.0071000000000000 H
   0.2751000000000001    0.2171500000000000    0.5071000000000000 H
   0.2751000000000001    0.7171500000000001    0.0071000000000000 H
   0.2751000000000001    0.7171500000000001    0.5071000000000000 H
   0.2248999999999999    0.4671500000000001    0.2429000000000000 H
   0.2248999999999999    0.4671500000000001    0.7429000000000000 H
   0.2248999999999999    0.9671500000000002    0.2429000000000000 H
   0.2248999999999999    0.9671500000000002    0.7429000000000000 H
   0.7751000000000001    0.4671500000000001    0.0071000000000000 H
   0.7751000000000001    0.4671500000000001    0.5071000000000000 H
   0.7751000000000002    0.9671500000000002    0.0071000000000000 H
   0.7751000000000002    0.9671500000000002    0.5071000000000000 H
   0.2751000000000001    0.2828500000000000    0.2571000000000000 H
   0.2751000000000001    0.2828500000000000    0.7571000000000000 H
   0.2751000000000001    0.7828500000000000    0.2571000000000001 H
   0.2751000000000001    0.7828500000000000    0.7571000000000000 H
   0.7249000000000001    0.2828500000000000    0.4929000000000000 H
   0.7249000000000001    0.2828500000000000    0.9929000000000000 H
   0.7249000000000001    0.7828500000000000    0.4929000000000000 H
   0.7249000000000001    0.7828500000000000    0.9929000000000000 H
   0.7751000000000001    0.0328500000000000    0.2571000000000001 H
   0.7751000000000001    0.0328500000000000    0.7571000000000001 H
   0.7751000000000001    0.5328500000000000    0.2571000000000001 H
   0.7751000000000001    0.5328500000000000    0.7571000000000001 H
   0.2248999999999999    0.0328500000000000    0.4929000000000001 H
   0.2248999999999999    0.0328500000000000    0.9929000000000001 H
   0.2248999999999999    0.5328500000000000    0.4929000000000000 H
   0.2248999999999999    0.5328500000000000    0.9929000000000000 H
   0.7124000000000000    0.3782000000000000    0.2066000000000000 H
   0.7124000000000000    0.3782000000000000    0.7066000000000000 H
   0.7124000000000000    0.8782000000000000    0.2066000000000000 H
   0.7124000000000000    0.8782000000000000    0.7066000000000000 H
   0.2876000000000000    0.3782000000000000    0.0434000000000000 H
   0.2876000000000000    0.3782000000000000    0.5434000000000000 H
   0.2876000000000000    0.8782000000000000    0.0434000000000000 H
   0.2876000000000000    0.8782000000000000    0.5434000000000000 H
   0.2124000000000002    0.1282000000000000    0.2066000000000000 H
   0.2124000000000002    0.1282000000000000    0.7066000000000001 H
   0.2124000000000002    0.6282000000000000    0.2066000000000000 H
   0.2124000000000002    0.6282000000000000    0.7066000000000001 H
   0.7876000000000000    0.1282000000000000    0.0434000000000000 H
   0.7876000000000000    0.1282000000000000    0.5434000000000000 H
   0.7876000000000000    0.6282000000000000    0.0434000000000000 H
   0.7876000000000000    0.6282000000000000    0.5434000000000000 H
   0.2876000000000000    0.1218000000000000    0.2934000000000000 H
   0.2876000000000000    0.1218000000000000    0.7934000000000000 H
   0.2876000000000000    0.6218000000000000    0.2934000000000000 H
   0.2876000000000000    0.6218000000000000    0.7934000000000000 H
   0.7124000000000000    0.1218000000000000    0.4566000000000000 H
   0.7124000000000000    0.1218000000000000    0.9566000000000000 H
   0.7124000000000000    0.6218000000000000    0.4566000000000000 H
   0.7124000000000000    0.6218000000000000    0.9566000000000000 H
   0.7876000000000000    0.3718000000000001    0.2934000000000000 H
   0.7876000000000000    0.3718000000000001    0.7934000000000001 H
   0.7876000000000000    0.8718000000000001    0.2934000000000000 H
   0.7876000000000000    0.8718000000000001    0.7934000000000001 H
   0.2124000000000002    0.3718000000000001    0.4566000000000000 H
   0.2124000000000002    0.3718000000000001    0.9566000000000000 H
   0.2124000000000002    0.8718000000000001    0.4566000000000000 H
   0.2124000000000002    0.8718000000000001    0.9566000000000000 H
   0.6333000000000001    0.4276500000000000    0.2123500000000000 H
   0.6333000000000001    0.4276500000000000    0.7123500000000001 H
   0.6333000000000002    0.9276500000000001    0.2123500000000001 H
   0.6333000000000002    0.9276500000000001    0.7123500000000001 H
   0.3667000000000000    0.4276500000000000    0.0376500000000000 H
   0.3667000000000000    0.4276500000000000    0.5376500000000001 H
   0.3667000000000000    0.9276500000000001    0.0376500000000000 H
   0.3667000000000000    0.9276500000000001    0.5376500000000001 H
   0.1333000000000000    0.1776500000000000    0.2123500000000000 H
   0.1333000000000000    0.1776500000000000    0.7123500000000000 H
   0.1333000000000000    0.6776500000000001    0.2123500000000000 H
   0.1333000000000000    0.6776500000000001    0.7123500000000000 H
   0.8667000000000001    0.1776500000000000    0.0376500000000000 H
   0.8667000000000001    0.1776500000000000    0.5376500000000001 H
   0.8667000000000001    0.6776500000000001    0.0376500000000001 H
   0.8667000000000001    0.6776500000000001    0.5376500000000001 H
   0.3667000000000000    0.0723500000000000    0.2876500000000000 H
   0.3667000000000000    0.0723500000000000    0.7876500000000000 H
   0.3667000000000000    0.5723500000000001    0.2876500000000000 H
   0.3667000000000000    0.5723500000000001    0.7876500000000000 H
   0.6333000000000001    0.0723500000000000    0.4623500000000001 H
   0.6333000000000001    0.0723500000000000    0.9623500000000001 H
   0.6333000000000001    0.5723500000000001    0.4623500000000001 H
   0.6333000000000001    0.5723500000000001    0.9623500000000001 H
   0.8667000000000001    0.3223500000000001    0.2876500000000000 H
   0.8667000000000001    0.3223500000000001    0.7876500000000001 H
   0.8667000000000001    0.8223500000000000    0.2876500000000000 H
   0.8667000000000001    0.8223500000000000    0.7876500000000001 H
   0.1333000000000000    0.3223500000000001    0.4623500000000001 H
   0.1333000000000000    0.3223500000000001    0.9623500000000001 H
   0.1333000000000000    0.8223500000000000    0.4623500000000001 H
   0.1333000000000000    0.8223500000000000    0.9623500000000001 H
   0.6181000000000001    0.3953500000000000    0.1662000000000000 H
   0.6181000000000001    0.3953500000000000    0.6662000000000001 H
   0.6181000000000001    0.8953500000000001    0.1662000000000000 H
   0.6181000000000001    0.8953500000000001    0.6662000000000001 H
   0.3819000000000001    0.3953500000000000    0.0838000000000001 H
   0.3819000000000001    0.3953500000000000    0.5838000000000001 H
   0.3819000000000001    0.8953500000000001    0.0838000000000000 H
   0.3819000000000001    0.8953500000000001    0.5838000000000001 H
   0.1181000000000001    0.1453500000000000    0.1662000000000000 H
   0.1181000000000001    0.1453500000000000    0.6662000000000000 H
   0.1181000000000001    0.6453500000000000    0.1662000000000000 H
   0.1181000000000001    0.6453500000000000    0.6662000000000000 H
   0.8819000000000001    0.1453500000000000    0.0838000000000001 H
   0.8819000000000001    0.1453500000000000    0.5838000000000001 H
   0.8819000000000001    0.6453500000000000    0.0838000000000001 H
   0.8819000000000001    0.6453500000000000    0.5838000000000001 H
   0.3819000000000001    0.1046500000000000    0.3338000000000000 H
   0.3819000000000001    0.1046500000000000    0.8338000000000000 H
   0.3819000000000001    0.6046500000000001    0.3338000000000000 H
   0.3819000000000001    0.6046500000000001    0.8338000000000000 H
   0.6181000000000001    0.1046500000000000    0.4162000000000001 H
   0.6181000000000001    0.1046500000000000    0.9162000000000001 H
   0.6181000000000001    0.6046500000000001    0.4162000000000001 H
   0.6181000000000001    0.6046500000000001    0.9162000000000001 H
   0.8819000000000001    0.3546500000000001    0.3338000000000000 H
   0.8819000000000001    0.3546500000000001    0.8338000000000001 H
   0.8819000000000001    0.8546500000000000    0.3338000000000000 H
   0.8819000000000001    0.8546500000000000    0.8338000000000001 H
   0.1181000000000001    0.3546500000000001    0.4162000000000000 H
   0.1181000000000001    0.3546500000000001    0.9162000000000000 H
   0.1181000000000001    0.8546500000000000    0.4162000000000000 H
   0.1181000000000001    0.8546500000000000    0.9162000000000000 H
   0.3987000000000001    0.3197000000000000    0.1584500000000000 H
   0.3987000000000001    0.3197000000000000    0.6584500000000001 H
   0.3987000000000001    0.8197000000000000    0.1584500000000000 H
   0.3987000000000001    0.8197000000000000    0.6584500000000000 H
   0.6013000000000001    0.3197000000000000    0.0915500000000000 H
   0.6013000000000001    0.3197000000000000    0.5915500000000000 H
   0.6013000000000001    0.8197000000000000    0.0915500000000000 H
   0.6013000000000001    0.8197000000000000    0.5915500000000000 H
   0.8987000000000002    0.0697000000000000    0.1584500000000000 H
   0.8987000000000002    0.0697000000000000    0.6584500000000000 H
   0.8987000000000002    0.5697000000000000    0.1584500000000001 H
   0.8987000000000002    0.5697000000000000    0.6584500000000000 H
   0.1013000000000000    0.0697000000000000    0.0915500000000000 H
   0.1013000000000000    0.0697000000000000    0.5915500000000000 H
   0.1013000000000000    0.5697000000000000    0.0915500000000000 H
   0.1013000000000000    0.5697000000000000    0.5915500000000000 H
   0.6013000000000001    0.1803000000000000    0.3415500000000001 H
   0.6013000000000001    0.1803000000000000    0.8415500000000001 H
   0.6013000000000001    0.6803000000000000    0.3415500000000001 H
   0.6013000000000001    0.6803000000000000    0.8415500000000001 H
   0.3987000000000001    0.1803000000000000    0.4084500000000000 H
   0.3987000000000001    0.1803000000000000    0.9084500000000001 H
   0.3987000000000001    0.6803000000000000    0.4084500000000000 H
   0.3987000000000001    0.6803000000000000    0.9084500000000001 H
   0.1013000000000000    0.4303000000000001    0.3415500000000000 H
   0.1013000000000000    0.4303000000000001    0.8415500000000000 H
   0.1013000000000000    0.9303000000000001    0.3415500000000000 H
   0.1013000000000000    0.9303000000000001    0.8415500000000000 H
   0.8987000000000002    0.4303000000000001    0.4084500000000000 H
   0.8987000000000002    0.4303000000000001    0.9084500000000000 H
   0.8987000000000003    0.9303000000000001    0.4084500000000000 H
   0.8987000000000003    0.9303000000000001    0.9084500000000000 H
   0.4727000000000001    0.3974500000000001    0.1702000000000000 H
   0.4727000000000001    0.3974500000000001    0.6702000000000000 H
   0.4727000000000001    0.8974500000000002    0.1702000000000000 H
   0.4727000000000001    0.8974500000000002    0.6702000000000000 H
   0.5273000000000000    0.3974500000000001    0.0798000000000001 H
   0.5273000000000000    0.3974500000000001    0.5798000000000001 H
   0.5273000000000000    0.8974500000000002    0.0798000000000000 H
   0.5273000000000000    0.8974500000000002    0.5798000000000000 H
   0.9727000000000000    0.1474500000000001    0.1702000000000000 H
   0.9727000000000000    0.1474500000000001    0.6702000000000000 H
   0.9727000000000000    0.6474500000000001    0.1702000000000000 H
   0.9727000000000000    0.6474500000000001    0.6702000000000000 H
   0.0273000000000000    0.1474500000000001    0.0798000000000000 H
   0.0273000000000000    0.1474500000000001    0.5798000000000000 H
   0.0273000000000000    0.6474500000000001    0.0798000000000000 H
   0.0273000000000000    0.6474500000000001    0.5798000000000000 H
   0.5273000000000000    0.1025500000000000    0.3298000000000000 H
   0.5273000000000000    0.1025500000000000    0.8298000000000001 H
   0.5273000000000000    0.6025500000000000    0.3298000000000000 H
   0.5273000000000000    0.6025500000000000    0.8298000000000000 H
   0.4727000000000001    0.1025500000000000    0.4202000000000001 H
   0.4727000000000001    0.1025500000000000    0.9202000000000000 H
   0.4727000000000001    0.6025500000000000    0.4202000000000000 H
   0.4727000000000001    0.6025500000000000    0.9202000000000000 H
   0.0273000000000000    0.3525500000000000    0.3298000000000000 H
   0.0273000000000000    0.3525500000000000    0.8298000000000001 H
   0.0273000000000000    0.8525500000000000    0.3298000000000000 H
   0.0273000000000000    0.8525500000000000    0.8298000000000001 H
   0.9727000000000000    0.3525500000000000    0.4202000000000001 H
   0.9727000000000000    0.3525500000000000    0.9202000000000000 H
   0.9727000000000000    0.8525500000000000    0.4202000000000001 H
   0.9727000000000000    0.8525500000000000    0.9202000000000000 H
   0.4575000000000000    0.3482500000000000    0.2070000000000000 H
   0.4575000000000000    0.3482500000000000    0.7070000000000000 H
   0.4575000000000000    0.8482500000000001    0.2070000000000000 H
   0.4575000000000000    0.8482500000000001    0.7070000000000000 H
   0.5425000000000000    0.3482500000000000    0.0430000000000000 H
   0.5425000000000000    0.3482500000000000    0.5430000000000000 H
   0.5425000000000000    0.8482500000000001    0.0430000000000000 H
   0.5425000000000000    0.8482500000000001    0.5430000000000000 H
   0.9575000000000001    0.0982500000000000    0.2070000000000000 H
   0.9575000000000001    0.0982500000000000    0.7070000000000001 H
   0.9575000000000001    0.5982499999999999    0.2070000000000000 H
   0.9575000000000001    0.5982499999999999    0.7070000000000001 H
   0.0425000000000000    0.0982500000000000    0.0430000000000000 H
   0.0425000000000000    0.0982500000000000    0.5430000000000000 H
   0.0425000000000000    0.5982499999999999    0.0430000000000000 H
   0.0425000000000000    0.5982499999999999    0.5430000000000000 H
   0.5425000000000000    0.1517500000000000    0.2930000000000001 H
   0.5425000000000000    0.1517500000000000    0.7930000000000000 H
   0.5425000000000000    0.6517500000000001    0.2930000000000001 H
   0.5425000000000000    0.6517500000000001    0.7930000000000000 H
   0.4575000000000000    0.1517500000000000    0.4570000000000000 H
   0.4575000000000000    0.1517500000000000    0.9570000000000000 H
   0.4575000000000000    0.6517500000000001    0.4570000000000000 H
   0.4575000000000000    0.6517500000000001    0.9570000000000000 H
   0.0425000000000000    0.4017500000000001    0.2930000000000000 H
   0.0425000000000000    0.4017500000000001    0.7930000000000000 H
   0.0425000000000000    0.9017500000000002    0.2930000000000000 H
   0.0425000000000000    0.9017500000000002    0.7930000000000000 H
   0.9575000000000001    0.4017500000000001    0.4570000000000000 H
   0.9575000000000001    0.4017500000000001    0.9570000000000001 H
   0.9575000000000001    0.9017500000000002    0.4570000000000000 H
   0.9575000000000001    0.9017500000000002    0.9570000000000001 H
   0.4313000000000001    0.0729500000000000    0.2249000000000000 H
   0.4313000000000001    0.0729500000000000    0.7249000000000001 H
   0.4313000000000001    0.5729500000000001    0.2249000000000000 H
   0.4313000000000001    0.5729500000000001    0.7249000000000001 H
   0.5687000000000001    0.0729500000000000    0.0251000000000000 H
   0.5687000000000001    0.0729500000000000    0.5251000000000001 H
   0.5687000000000001    0.5729500000000001    0.0251000000000000 H
   0.5687000000000001    0.5729500000000001    0.5251000000000000 H
   0.9313000000000001    0.3229500000000000    0.2249000000000000 H
   0.9313000000000001    0.3229500000000000    0.7249000000000001 H
   0.9313000000000001    0.8229500000000002    0.2249000000000000 H
   0.9313000000000001    0.8229500000000002    0.7249000000000001 H
   0.0687000000000000    0.3229500000000000    0.0251000000000000 H
   0.0687000000000000    0.3229500000000000    0.5251000000000000 H
   0.0687000000000000    0.8229500000000002    0.0251000000000000 H
   0.0687000000000000    0.8229500000000002    0.5251000000000000 H
   0.5687000000000001    0.4270500000000000    0.2751000000000000 H
   0.5687000000000001    0.4270500000000000    0.7751000000000001 H
   0.5687000000000002    0.9270500000000000    0.2751000000000001 H
   0.5687000000000002    0.9270500000000000    0.7751000000000001 H
   0.4313000000000001    0.4270500000000000    0.4749000000000000 H
   0.4313000000000001    0.4270500000000000    0.9749000000000000 H
   0.4313000000000001    0.9270500000000000    0.4749000000000000 H
   0.4313000000000001    0.9270500000000000    0.9749000000000000 H
   0.0687000000000000    0.1770500000000000    0.2751000000000001 H
   0.0687000000000000    0.1770500000000000    0.7751000000000001 H
   0.0687000000000000    0.6770500000000000    0.2751000000000000 H
   0.0687000000000000    0.6770500000000000    0.7751000000000001 H
   0.9313000000000001    0.1770500000000000    0.4749000000000000 H
   0.9313000000000001    0.1770500000000000    0.9749000000000001 H
   0.9313000000000001    0.6770500000000000    0.4749000000000000 H
   0.9313000000000001    0.6770500000000000    0.9749000000000001 H
   0.3093000000000001    0.4801000000000000    0.1844000000000000 H
   0.3093000000000001    0.4801000000000000    0.6844000000000000 H
   0.3093000000000000    0.9801000000000001    0.1844000000000000 H
   0.3093000000000000    0.9801000000000001    0.6844000000000000 H
   0.6907000000000001    0.4801000000000000    0.0656000000000000 H
   0.6907000000000001    0.4801000000000000    0.5656000000000001 H
   0.6907000000000002    0.9801000000000001    0.0656000000000000 H
   0.6907000000000002    0.9801000000000001    0.5656000000000001 H
   0.8093000000000000    0.2301000000000000    0.1844000000000000 H
   0.8093000000000000    0.2301000000000000    0.6844000000000001 H
   0.8093000000000000    0.7301000000000001    0.1844000000000000 H
   0.8093000000000000    0.7301000000000001    0.6844000000000001 H
   0.1907000000000000    0.2301000000000000    0.0656000000000000 H
   0.1907000000000000    0.2301000000000000    0.5656000000000000 H
   0.1907000000000000    0.7301000000000001    0.0656000000000000 H
   0.1907000000000000    0.7301000000000001    0.5656000000000000 H
   0.6907000000000001    0.0199000000000000    0.3156000000000000 H
   0.6907000000000001    0.0199000000000000    0.8156000000000001 H
   0.6907000000000001    0.5199000000000000    0.3156000000000000 H
   0.6907000000000001    0.5199000000000000    0.8156000000000001 H
   0.3093000000000001    0.0199000000000000    0.4344000000000001 H
   0.3093000000000001    0.0199000000000000    0.9344000000000001 H
   0.3093000000000000    0.5199000000000000    0.4344000000000000 H
   0.3093000000000000    0.5199000000000000    0.9344000000000000 H
   0.1907000000000000    0.2699000000000001    0.3156000000000000 H
   0.1907000000000000    0.2699000000000001    0.8156000000000000 H
   0.1907000000000000    0.7699000000000001    0.3156000000000000 H
   0.1907000000000000    0.7699000000000001    0.8156000000000000 H
   0.8093000000000000    0.2699000000000001    0.4344000000000001 H
   0.8093000000000000    0.2699000000000001    0.9344000000000001 H
   0.8093000000000000    0.7699000000000001    0.4344000000000001 H
   0.8093000000000000    0.7699000000000001    0.9344000000000001 H
   0.2443000000000000    0.4853000000000001    0.1103000000000000 H
   0.2443000000000000    0.4853000000000001    0.6103000000000001 H
   0.2443000000000000    0.9853000000000002    0.1103000000000000 H
   0.2443000000000000    0.9853000000000002    0.6103000000000001 H
   0.7557000000000000    0.4853000000000001    0.1397000000000000 H
   0.7557000000000000    0.4853000000000001    0.6396999999999999 H
   0.7557000000000001    0.9853000000000002    0.1397000000000000 H
   0.7557000000000001    0.9853000000000002    0.6396999999999999 H
   0.7443000000000000    0.2353000000000000    0.1103000000000000 H
   0.7443000000000000    0.2353000000000000    0.6103000000000001 H
   0.7443000000000000    0.7353000000000001    0.1103000000000000 H
   0.7443000000000000    0.7353000000000001    0.6103000000000001 H
   0.2557000000000000    0.2353000000000000    0.1397000000000000 H
   0.2557000000000000    0.2353000000000000    0.6397000000000000 H
   0.2557000000000001    0.7353000000000001    0.1397000000000000 H
   0.2557000000000001    0.7353000000000001    0.6397000000000000 H
   0.7557000000000000    0.0147000000000000    0.3897000000000000 H
   0.7557000000000000    0.0147000000000000    0.8896999999999999 H
   0.7557000000000000    0.5147000000000000    0.3897000000000000 H
   0.7557000000000000    0.5147000000000000    0.8896999999999999 H
   0.2443000000000000    0.0147000000000000    0.3603000000000000 H
   0.2443000000000000    0.0147000000000000    0.8603000000000001 H
   0.2443000000000000    0.5147000000000000    0.3603000000000000 H
   0.2443000000000000    0.5147000000000000    0.8603000000000001 H
   0.2557000000000000    0.2647000000000000    0.3897000000000000 H
   0.2557000000000000    0.2647000000000000    0.8897000000000000 H
   0.2557000000000000    0.7647000000000000    0.3897000000000000 H
   0.2557000000000000    0.7647000000000000    0.8897000000000000 H
   0.7443000000000000    0.2647000000000000    0.3603000000000000 H
   0.7443000000000000    0.2647000000000000    0.8603000000000001 H
   0.7443000000000000    0.7647000000000000    0.3603000000000001 H
   0.7443000000000000    0.7647000000000000    0.8603000000000001 H
   0.5996800000000001    0.1502750000000000    0.2241950000000000 C
   0.5996800000000001    0.1502750000000000    0.7241950000000000 C
   0.5996800000000001    0.6502750000000000    0.2241950000000000 C
   0.5996800000000001    0.6502750000000000    0.7241950000000000 C
   0.4003200000000000    0.1502750000000000    0.0258050000000000 C
   0.4003200000000000    0.1502750000000000    0.5258050000000001 C
   0.4003200000000000    0.6502750000000000    0.0258050000000000 C
   0.4003200000000000    0.6502750000000000    0.5258050000000000 C
   0.0996800000000000    0.4002750000000000    0.2241950000000000 C
   0.0996800000000000    0.4002750000000000    0.7241950000000000 C
   0.0996800000000000    0.9002750000000002    0.2241950000000000 C
   0.0996800000000000    0.9002750000000002    0.7241950000000000 C
   0.9003200000000001    0.4002750000000000    0.0258050000000001 C
   0.9003200000000001    0.4002750000000000    0.5258050000000001 C
   0.9003200000000001    0.9002750000000002    0.0258050000000001 C
   0.9003200000000001    0.9002750000000002    0.5258050000000001 C
   0.4003200000000000    0.3497250000000000    0.2758050000000000 C
   0.4003200000000000    0.3497250000000000    0.7758050000000000 C
   0.4003200000000000    0.8497250000000001    0.2758050000000000 C
   0.4003200000000000    0.8497250000000001    0.7758050000000000 C
   0.5996800000000001    0.3497250000000000    0.4741950000000001 C
   0.5996800000000001    0.3497250000000000    0.9741950000000001 C
   0.5996800000000001    0.8497250000000001    0.4741950000000001 C
   0.5996800000000001    0.8497250000000001    0.9741950000000001 C
   0.9003200000000001    0.0997250000000000    0.2758050000000000 C
   0.9003200000000001    0.0997250000000000    0.7758050000000001 C
   0.9003200000000001    0.5997250000000001    0.2758050000000001 C
   0.9003200000000001    0.5997250000000001    0.7758050000000001 C
   0.0996800000000000    0.0997250000000000    0.4741950000000000 C
   0.0996800000000000    0.0997250000000000    0.9741949999999999 C
   0.0996800000000000    0.5997250000000001    0.4741950000000000 C
   0.0996800000000000    0.5997250000000001    0.9741949999999999 C
   0.3261400000000000    0.0835300000000000    0.1066350000000000 C
   0.3261400000000000    0.0835300000000000    0.6066350000000000 C
   0.3261400000000000    0.5835300000000001    0.1066350000000000 C
   0.3261400000000000    0.5835300000000001    0.6066349999999999 C
   0.6738600000000001    0.0835300000000000    0.1433650000000000 C
   0.6738600000000001    0.0835300000000000    0.6433650000000001 C
   0.6738600000000001    0.5835300000000001    0.1433650000000000 C
   0.6738600000000001    0.5835300000000001    0.6433650000000001 C
   0.8261400000000001    0.3335300000000000    0.1066350000000000 C
   0.8261400000000001    0.3335300000000000    0.6066350000000000 C
   0.8261400000000001    0.8335300000000000    0.1066350000000000 C
   0.8261400000000001    0.8335300000000000    0.6066350000000000 C
   0.1738600000000000    0.3335300000000000    0.1433650000000000 C
   0.1738600000000000    0.3335300000000000    0.6433650000000001 C
   0.1738600000000000    0.8335300000000000    0.1433650000000000 C
   0.1738600000000000    0.8335300000000000    0.6433650000000001 C
   0.6738600000000001    0.4164700000000001    0.3933650000000000 C
   0.6738600000000001    0.4164700000000001    0.8933650000000001 C
   0.6738600000000001    0.9164700000000001    0.3933650000000000 C
   0.6738600000000001    0.9164700000000001    0.8933650000000001 C
   0.3261400000000000    0.4164700000000001    0.3566350000000000 C