H96 C88 N16 O8
1.0
  14.9466859165839328    0.0000000000000000   -7.4769135584806277
  -0.0000000000000005    7.3864000000000001    0.0000000000000005
   0.0000000000000000    0.0000000000000000   17.5904999999999987
H C N O
96 88 16 8
direct
   0.2996005428530444    0.1718547515274132    0.1560022035946891 H
   0.7040426206811102    0.1747226172904884    0.3473282089629627 H
   0.7957096654995756    0.6727033153584239    0.1511164388446847 H
   0.2029585188306588    0.6676129963517200    0.3477941846852534 H
   0.7022720096877914    0.8213122414701735    0.8487263993160520 H
   0.2968908111232618    0.8279221989954348    0.6542675805690603 H
   0.1978159279314729    0.3272760081029619    0.8465037758164216 H
   0.7970364222671531    0.3279997249767389    0.6544198119688929 H
   0.4186463286539759    0.3609533632041937    0.2345341175548316 H
   0.5772260326432846    0.3632975077158031    0.2643536218452736 H
   0.9212147266467366    0.8665362863661096    0.2335645851895264 H
   0.0799598587400789    0.8635632531416629    0.2647955299398501 H
   0.5790170106493234    0.6465191657178251    0.7675786752882200 H
   0.4197262456007373    0.6466326381036143    0.7326683783902423 H
   0.0815266513995469    0.1378590677955404    0.7697860383126104 H
   0.9178609585123767    0.1435850241557316    0.7312137330579732 H
   0.7229893295409293    0.4353995579215981    0.4827008222186729 H
   0.2741734685316756    0.4277971020864278    0.0137479936934471 H
   0.2266743664853079    0.9294439462997169    0.4878381234477036 H
   0.7774697115704990    0.9371850314941348    0.0136080384149192 H
   0.2766120760883030    0.5601377044860344    0.5158293508373611 H
   0.7265679623618396    0.5701015071885769    0.9848795964490576 H
   0.7784117651712867    0.0656602766650850    0.5152070159606037 H
   0.2248075707439665    0.0723399995184671    0.9863077968389284 H
   0.7147591201777577    0.7520728042034186    0.4133311566089182 H
   0.2906241292809641    0.7567077012600091    0.0868771558190571 H
   0.2116443626110674    0.2499207130560021    0.4123640459672987 H
   0.7859484723186100    0.2589754794548875    0.0883207680189886 H
   0.2906340307389114    0.2429233688397575    0.5892526225377499 H
   0.7156335829782584    0.2427377342173153    0.9152062531741346 H
   0.7882685891608072    0.7499717461038349    0.5878576049454322 H
   0.2128886748345265    0.7478966353090840    0.9155645524604603 H
   0.6302358436830012    0.8579624561862929    0.4231722927708186 H
   0.3678323080822490    0.8580256223733688    0.0781987066669744 H
   0.1344076919274239    0.3611576228256578    0.4262402480463007 H
   0.8643890844613283    0.3506275766816528    0.0749296130084621 H
   0.3669178244463596    0.1509665675564165    0.5743337947225055 H
   0.6301999325183112    0.1455490332774893    0.9243891394705330 H
   0.8670686944069025    0.6492932425561426    0.5775210057323799 H
   0.1347887191969535    0.6426647298876076    0.9229350887449234 H
   0.6194838190683267    0.7906858104724769    0.3355760277175201 H
   0.3790790524129231    0.7943365130114874    0.1663529369008119 H
   0.1187180529482832    0.2971543673222908    0.3319857492769713 H
   0.8789330101974179    0.2932954861665640    0.1656067874374548 H
   0.3813357666983184    0.2098608034422020    0.6701519757056307 H
   0.6161553778292982    0.2046522017651649    0.8303323471704006 H
   0.8829905323184275    0.7040341735822357    0.6695904910567130 H
   0.1182320455689509    0.7115126226977319    0.8351400919651351 H
   0.3973798047719988    0.6368260359443314    0.3139612590199370 H
   0.5993490457509060    0.6363822575565404    0.1842009413643668 H
   0.8963376366433086    0.1412827168375767    0.3140451353087145 H
   0.1000219962170040    0.1345016939541284    0.1809228684144802 H
   0.5993218109307958    0.3551539969380197    0.6824159954254447 H
   0.3981449758273601    0.3672551274657731    0.8168822458858079 H
   0.1037063130702069    0.8590617024397069    0.6859887309280699 H
   0.9018904919528120    0.8622294617473387    0.8177442979492495 H
   0.4693599132237697    0.7949745526344398    0.3388259709491548 H
   0.5292806686297707    0.7899070506944920    0.1595191708190316 H
   0.9749593822799565    0.2990256866314822    0.3401802759770712 H
   0.0254802337887026    0.2911835308973110    0.1570228473640206 H
   0.5254783894872052    0.2096876703696144    0.6574211906568983 H
   0.4754667850354991    0.2089003237235542    0.8414985062438928 H
   0.0253983201248176    0.7106639402725338    0.6588915071128477 H
   0.9697527882728879    0.7046046379577982    0.8378187657940909 H
   0.4550443618918160    0.7007579735221845    0.4122289319259558 H
   0.5413428082194183    0.6959612464144921    0.0881654771354606 H
   0.9552504521925195    0.1941407810490310    0.4111878947824589 H
   0.0419623071850812    0.2031791048977505    0.0857014981921854 H
   0.5400005600242859    0.3057925023878176    0.5833120670736253 H
   0.4547025033979037    0.3004384228492517    0.9136920759624434 H
   0.0401012809289840    0.8015008317633076    0.5831858305871830 H
   0.9562595888937518    0.8084642470237108    0.9150924333870818 H
   0.4337798205139232    0.1417604147948652    0.4516402347748695 H
   0.5666478115182714    0.1501686381941618    0.0479764161958492 H
   0.9333532929607058    0.6411823557420818    0.4496185912263435 H
   0.0667350401684620    0.6505501925226136    0.0505809089233128 H
   0.5666041700322031    0.8496396259219281    0.5504924538567029 H
   0.4330622132590683    0.8544869452049639    0.9481384327154851 H
   0.0685634645675536    0.3604293344177716    0.5491407473544226 H
   0.9343165522955513    0.3529974791366477    0.9522203140981272 H
   0.3064063686621851    0.9631573382317283    0.3668685795766720 H
   0.6901880901996010    0.9587180981347020    0.1337215844743080 H
   0.8063949487205476    0.4617840674975120    0.3688077352401013 H
   0.1921105670074323    0.4656117270893478    0.1330157067987972 H
   0.6906524150008380    0.0364379329472224    0.6287130387344844 H
   0.3087973889889286    0.0399674095233920    0.8657770653405439 H
   0.1911428133965861    0.5331236372469316    0.6316684300146378 H
   0.8105662678322040    0.5387755083428249    0.8719337570901946 H
   0.2418455773211872    0.9660954520310154    0.2191664915929539 H
   0.7548394121071873    0.9641085823986670    0.2793729880564770 H
   0.7474642706147772    0.4727797401243614    0.2220576141383136 H
   0.2566193350182147    0.4681315146614297    0.2823195733289212 H
   0.7541735141613177    0.0250386005285761    0.7770067012388416 H
   0.2411527186544950    0.0307686307380084    0.7184892009396028 H
   0.2588117342968670    0.5315408144291853    0.7801931331913192 H
   0.7457907598757333    0.5339155311907345    0.7229306267909167 H
   0.5994591858106754    0.2959372575380715    0.4462242867745365 C
   0.4003635123148797    0.2938798457163589    0.0521115401065701 C
   0.1028979232761770    0.8002515390367900    0.4505242835958571 C
   0.8994071664746867    0.7979120090068426    0.0537221644117338 C
   0.4001057724005853    0.6991145623594395    0.5486858321087648 C
   0.5995888802967135    0.6944140249089582    0.9464534412420684 C
   0.9016226217379137    0.1934968794801259    0.5529418617455288 C
   0.1021589866563868    0.2039611506759301    0.9496767304410360 C
   0.3284722844947685    0.1628235497712320    0.2132675657339311 C
   0.6754945460894153    0.1729167694352788    0.2877446337388528 C
   0.8248465057934991    0.6615598537048547    0.2114802601452835 C
   0.1748876630397322    0.6667897347671551    0.2898694247391532 C
   0.6750598897096131    0.8367093719647218    0.7893695194178229 C
   0.3285565884436044    0.8296734363459097    0.7157048980770124 C
   0.1752891794705665    0.3292979678125322    0.7894028968694309 C
   0.8231039077289318    0.3350036458000799    0.7128000780364810 C
   0.4008521941816633    0.2753680164627857    0.2633206273364510 C
   0.5990798923548649    0.2753211738491568    0.2367438700566883 C
   0.9003132760127829    0.7804386004035578    0.2594393177511690 C
   0.1012312709311859    0.7824231265367845    0.2412473702137774 C
   0.6041218871947712    0.7219376983860186    0.7384976701101417 C
   0.3966238653663337    0.7204624076894427    0.7622542716734205 C
   0.1002430136484330    0.2264348700116637    0.7405737029706924 C
   0.8952261571621554    0.2201985455202052    0.7588225348205874 C
   0.6633631546634284    0.4464204499005575    0.4545211848351370 C
   0.3396879941706515    0.4436735512975488    0.0441085773323255 C
   0.1618209046499280    0.9452325141604878    0.4563561510267746 C
   0.8377366629909528    0.9346959455469220    0.0443014035863448 C
   0.3374784331571336    0.5604556861826852    0.5481466243375694 C
   0.6591584155401229    0.5564640585977634    0.9516948277348000 C
   0.8354424780063362    0.0589606113158436    0.5431463660233770 C
   0.1590518291057412    0.0615002810828016    0.9546061751520224 C
   0.6146722267248759    0.5811820785071261    0.4042989693090149 C
   0.3856020604125108    0.5829472953157494    0.0959071251660010 C
   0.1145199263594749    0.0896118158380957    0.4062764224072978 C
   0.8824402607065968    0.0833239396772370    0.0934493041376005 C
   0.3844632056223672    0.4162905765273158    0.5898362680286987 C
   0.6115738385164595    0.4177814753171248    0.9054665264273487 C
   0.8868905327174068    0.9188694303508721    0.5959110763152428 C
   0.1162573603616931    0.9212472045859105    0.9058493278224905 C
   0.6506597837913278    0.7616064397369452    0.3953149490405162 C
   0.3550197952575344    0.7658426214606816    0.1071810761074112 C
   0.1469007966299505    0.2623185399154140    0.3957046037258720 C
   0.8501667977637863    0.2649609311336097    0.1072508432297759 C
   0.3504112203279665    0.2380961307664353    0.6037587975033030 C
   0.6465714392363852    0.2448909526897142    0.8925113026571665 C
   0.8514221984312245    0.7447203279501197    0.6066794086435657 C
   0.1465347517929379    0.7323505694599898    0.8917395258586615 C
   0.4559972386681207    0.6770083671800331    0.3601101906228722 C
   0.5443560499171844    0.6806311278402010    0.1399732592946707 C
   0.9605849129193226    0.1759433762357333    0.3604076685846903 C
   0.0397845913198143    0.1847023461314050    0.1403135759874214 C
   0.5416094673429541    0.3135331699007026    0.6404377349949024 C
   0.4553307124789489    0.3157864042057936    0.8579041790693168 C
   0.0404508419287992    0.8142894887789349    0.6401566442025730 C
   0.9607226813295966    0.8220673271060691    0.8613812184739853 C
   0.4350504158917634    0.2698623044406433    0.3463753052885717 C
   0.5631079151244076    0.2729306367410667    0.1498095209016392 C
   0.9382866648717270    0.7719329076957910    0.3513185336631025 C
   0.0603407621225754    0.7652190180659294    0.1483817072934073 C
   0.5617869398536383    0.7275821769302345    0.6533400046670086 C
   0.4384161987727733    0.7253235180613331    0.8498609962283455 C
   0.0631908113542539    0.2363157717511361    0.6498664138818119 C
   0.9409801244740579    0.2334059937018928    0.8490240466551121 C
   0.4077425480729637    0.1482787372232813    0.3902873375207541 C
   0.5958342123104954    0.1444333382418270    0.1098781285200457 C
   0.9061675612875014    0.6499890489172439    0.3926647344889032 C
   0.0951640032501314    0.6556374694006999    0.1084429691690858 C
   0.5959610460165521    0.8440935575516145    0.6125554179179483 C
   0.4032130890484547    0.8546172745835118    0.8900135761358173 C
   0.0970355968953150    0.3496520889615196    0.6088055385220613 C
   0.9024645881560711    0.3518293032468934    0.8867588902907579 C
   0.3332716276546003    0.0386192942597568    0.3442295354501111 C
   0.6677188134720944    0.0406249044578889    0.1559153086871189 C
   0.8352244896231135    0.5375260032423907    0.3421994023670500 C
   0.1643660792642493    0.5402797636390334    0.1576490904725875 C
   0.6704420943916508    0.9630059848594957    0.6599748900319915 C
   0.3338747770725825    0.9599156131933601    0.8394225950881983 C
   0.1647665838485183    0.4624380292213285    0.6578033867957350 C
   0.8311186070920760    0.4634133417798934    0.8387764288716071 C
   0.2924620922051829    0.0474067824398904    0.2556753976079414 C
   0.7098077083504755    0.0490247246091299    0.2472062809492107 C
   0.7952314046723011    0.5526446722687076    0.2532528038263395 C
   0.2056321615382086    0.5410914733010647    0.2461446296901374 C
   0.7060876930085107    0.9470698811673415    0.7480751921467707 C
   0.2916654674641081    0.9478535410353852    0.7510542899752998 C
   0.2040316552492406    0.4503876298107062    0.7441188157367788 C
   0.7929742441068796    0.4537604810865454    0.7503625571587741 C
   0.5160662821385916    0.3689111095387629    0.3993671489923613 N
   0.4854601511439214    0.3712867750449391    0.1033820899788990 N
   0.0143976588746364    0.8759281635648913    0.3961123502342126 N
   0.9856486679683625    0.8687402779446806    0.1021016224266656 N
   0.4821663587392588    0.6257278604935492    0.5987279226147532 N
   0.5152213335458031    0.6276342325549675    0.9018404912197217 N
   0.9836066099094872    0.1208511082470156    0.5985045624685975 N
   0.0164832446062550    0.1192864498502904    0.8995696468567249 N
   0.5241917841473107    0.5500624936853328    0.3657730483564803 N
   0.4785208966535195    0.5451663845901787    0.1339731998113985 N
   0.0227283171190222    0.0466319440413163    0.3641911584300996 N
   0.9771847287036114    0.0411835782048805    0.1358796622019871 N
   0.4762028595129101    0.4504342422914398    0.6321282087211999 N
   0.5223930095778807    0.4556428652250016    0.8680299887677877 N
   0.9747691515210449    0.9505328182159917    0.6312935036159318 N
   0.0256830689308204    0.9522867995446814    0.8652259821266904 N
   0.6101869512736345    0.1469263957922425    0.4728789243416700 O
   0.3910564346244522    0.1479582892283385    0.0240257508634024 O
   0.1128586331777705    0.6414755542923950    0.4786871328721036 O
   0.8872653251888453    0.6381958459739300    0.0232753630507385 O
   0.3882020537595105    0.8527585328280065    0.5265611934251690 O
   0.6116750142105251    0.8539854269061613    0.9786745731478659 O
   0.8862264449493330    0.3520456208058579    0.5244707524661814 O
   0.1101063128026721    0.3551052650164924    0.9726498875396282 O
