H96 C88 N16 O8
1.0
  14.9466859165839328    0.0000000000000000   -7.4769135584806277
  -0.0000000000000005    7.3864000000000001    0.0000000000000005
   0.0000000000000000    0.0000000000000000   17.5904999999999987
H C N O
96 88 16 8
direct
   0.3069156669068624    0.1683532452630804    0.1518391555935366 H
   0.7027706602500130    0.1797205971212480    0.3488400164341979 H
   0.8006599480969822    0.6620889734387977    0.1572358586410996 H
   0.2009235798120592    0.6699464927342228    0.3462075781856194 H
   0.7029955544957190    0.8220329238546770    0.8525651944991287 H
   0.3006515043533867    0.8174711687655991    0.6530669904126825 H
   0.1999451633565162    0.3181796018723660    0.8515453911569232 H
   0.8005415404483044    0.3282170150872329    0.6540006645522820 H
   0.4183486899633428    0.3607428291713272    0.2374510308774623 H
   0.5704789129213120    0.3644033925506412    0.2630543061745502 H
   0.9154496428250829    0.8610481777761733    0.2305354974835567 H
   0.0824962420466211    0.8720055090238218    0.2660890876440550 H
   0.5794065792928126    0.6415315106932038    0.7654596145257571 H
   0.4167622644584968    0.6379932217521606    0.7355263980765502 H
   0.0732648523139781    0.1439648563039030    0.7668502506015680 H
   0.9166508781179161    0.1440408910483779    0.7344759928413676 H
   0.7225742335352699    0.4304114936694611    0.4857410016049175 H
   0.2771795498181981    0.4233478042107814    0.0115338432305774 H
   0.2274165337553981    0.9307865625997631    0.4822907048685174 H
   0.7785448129857916    0.9302197124039907    0.0184345912280952 H
   0.2760874060597575    0.5675167680619512    0.5153380687907032 H
   0.7291196214921633    0.5767703301409007    0.9847250817020043 H
   0.7784795746045745    0.0599525260942294    0.5148640523385229 H
   0.2247228026075945    0.0621629781877845    0.9870796187289866 H
   0.7106729867144316    0.7579637172677126    0.4134428978968777 H
   0.2889022322798776    0.7592920146344061    0.0816639790782416 H
   0.2167661355530466    0.2583485740568131    0.4189488089093165 H
   0.7818835410701306    0.2553439043104979    0.0782953148370419 H
   0.2848436743812187    0.2551884744997787    0.5855552086874873 H
   0.7141008461821921    0.2433040594034547    0.9161149782316842 H
   0.7837851163157564    0.7623358824264939    0.5843114172377725 H
   0.2081502979563368    0.7440822147118801    0.9089343507692941 H
   0.6316418054049455    0.8492763329331059    0.4224178527883970 H
   0.3642773588059585    0.8593180530917323    0.0750391754447535 H
   0.1260380119800916    0.3531044171089766    0.4240255518954598 H
   0.8712505941436839    0.3491695605878000    0.0762955017257284 H
   0.3617258832871216    0.1457766593882248    0.5750780700763244 H
   0.6373243392103214    0.1332846921383034    0.9258667920084325 H
   0.8619238482004320    0.6587268409849482    0.5712395928778594 H
   0.1404279228793418    0.6390861157183714    0.9279457071190621 H
   0.6197711193631178    0.7890353501280571    0.3376515698983945 H
   0.3816335953912911    0.7721635869093065    0.1668733115130024 H
   0.1115925729288561    0.2952250094572075    0.3304000068234247 H
   0.8854208870173844    0.2878056425469545    0.1706938207054652 H
   0.3834294656704961    0.2012030190226886    0.6695049163080976 H
   0.6147444083046899    0.2040885431952226    0.8365422538380095 H
   0.8785163413317858    0.7246348258302161    0.6655372473504210 H
   0.1183356005089305    0.7138423928619030    0.8351059643403931 H
   0.3970953902250246    0.6461051269304575    0.3182725410472900 H
   0.5947521131005494    0.6271829273531653    0.1792433838360185 H
   0.9005570870259167    0.1291878822709499    0.3175075603928393 H
   0.1035825647340537    0.1329556183302414    0.1876027188978301 H
   0.5979620277283916    0.3590623317261904    0.6816076957915832 H
   0.4007063208435852    0.3567588064026587    0.8176651040513498 H
   0.1085148085295240    0.8730937198154543    0.6891684612109653 H
   0.9029949840493650    0.8584179873759605    0.8245685379063497 H
   0.4798146421573615    0.7871441408377158    0.3411951550191047 H
   0.5203424256990934    0.7893533316868826    0.1543933070592901 H
   0.9675087277182676    0.2931802922538969    0.3381616204972012 H
   0.0266627327572833    0.2944973357259286    0.1565279934694913 H
   0.5269012399906426    0.2133498194372045    0.6553150231790208 H
   0.4687608066544391    0.2007323928207332    0.8396386963050458 H
   0.0262618339234921    0.7087516103125768    0.6612418502235821 H
   0.9646189611174708    0.7131598579759310    0.8371922907914113 H
   0.4575477468260846    0.7112159625676392    0.4089543114632515 H
   0.5347658127697349    0.6992205843097846    0.0840900976669313 H
   0.9584371699517802    0.1907213083784720    0.4197930599713938 H
   0.0362897929692078    0.1938514097763843    0.0850101091798153 H
   0.5364973698376206    0.3037466479875937    0.5863738885737257 H
   0.4581206699000511    0.2896938304816979    0.9089163107921274 H
   0.0425923822212719    0.8092329567454216    0.5887426757897448 H
   0.9546339640061996    0.7954485169707765    0.9112047914287674 H
   0.4358427227240214    0.1559914453350896    0.4539619763374752 H
   0.5671130381451011    0.1389604502421869    0.0515560007491677 H
   0.9287884200698413    0.6385105827183929    0.4514925275016109 H
   0.0594588796301958    0.6450820367613102    0.0430189198863759 H
   0.5704566344248662    0.8644016013916307    0.5506504027033398 H
   0.4361870465418479    0.8529292098812340    0.9503016861368261 H
   0.0665111454337100    0.3674162510716723    0.5470514471183495 H
   0.9342317345861320    0.3527978547559959    0.9542321841936355 H
   0.3151798039955208    0.9579839450420631    0.3703551591649841 H
   0.6943238374803772    0.9531111979005241    0.1321265126599599 H
   0.8108293773714050    0.4558623238287480    0.3681961112192819 H
   0.1874803262430169    0.4649018533923642    0.1293358943214006 H
   0.6916407219438481    0.0449660101200342    0.6271703570842113 H
   0.3135678255679662    0.0350928229085729    0.8678235815876676 H
   0.1971449734951310    0.5259327931224957    0.6334051450530440 H
   0.8142659672475927    0.5456403404142537    0.8713443175747297 H
   0.2392241223387155    0.9598321483831537    0.2187197194409849 H
   0.7576283051832295    0.9819916357757106    0.2759650590952837 H
   0.7418485050341821    0.4624740491351920    0.2187949119646933 H
   0.2491925016864170    0.4622721349191644    0.2796879731570495 H
   0.7528150147078801    0.0358372123432292    0.7741376375526952 H
   0.2393116207405992    0.0358725325872803    0.7166731152307927 H
   0.2544668570738021    0.5310274551905361    0.7727578265913887 H
   0.7426801708435685    0.5352086247637610    0.7236209448540848 H
   0.6009772446590371    0.2947821679299719    0.4513841931963709 C
   0.4036119039347694    0.2988942803535155    0.0461440110061740 C
   0.0934880324788059    0.8013096005402734    0.4422328383879592 C
   0.8977309919982207    0.7906727265187166    0.0551949420759327 C
   0.4008403427035595    0.7007705502907862    0.5584209800770126 C
   0.6030265292312333    0.7051518523151189    0.9527462596126841 C
   0.8996862126199470    0.2076914213393864    0.5583508959683635 C
   0.0961917001918328    0.2063023237546259    0.9499788143130627 C
   0.3239942666151173    0.1537661301487312    0.2095379389512478 C
   0.6747819016712152    0.1687163347963533    0.2894465312063109 C
   0.8257775185358137    0.6840003554207896    0.2146871610790836 C
   0.1784897547532088    0.6638696198117928    0.2910787606454687 C
   0.6699102137221629    0.8299329659195661    0.7892394383317943 C
   0.3255030973867505    0.8297708646908625    0.7166603991552014 C
   0.1769573676469064    0.3395328170618074    0.7857691379090257 C
   0.8178639878807669    0.3360608773551348    0.7139778866684620 C
   0.3957148697324006    0.2807479196494824    0.2553382759747924 C
   0.5985067288795499    0.2805649334282999    0.2402365383812861 C
   0.8963198443606940    0.7752554387850727    0.2620253340695073 C
   0.0980109792024888    0.7642323734487428    0.2373975033457543 C
   0.6054037537280599    0.7104490931226108    0.7425958739388430 C
   0.3985237959118164    0.7242006295435935    0.7672813459664144 C
   0.1003427616717791    0.2026269037105704    0.7394075109749209 C
   0.8916830729698435    0.2121730490640853    0.7585739006580042 C
   0.6698524227715931    0.4364340988398235    0.4521305260038199 C
   0.3418299884344296    0.4411065025495862    0.0454382846379961 C
   0.1560965214061191    0.9309408222675198    0.4558837110684546 C
   0.8382737058703049    0.9252566180993116    0.0475301612411523 C
   0.3341042902061220    0.5610386777031112    0.5407482073185409 C
   0.6693506194908073    0.5544403351984428    0.9603717677423413 C
   0.8317104827149433    0.0500338650573510    0.5432072449495112 C
   0.1634294519167654    0.0572090079111146    0.9569312986288652 C
   0.6176931434535271    0.5799799528531543    0.4162945580859148 C
   0.3821904083695705    0.5727992089809384    0.0895876765040110 C
   0.1125788268161955    0.0677372552007965    0.4041814988697237 C
   0.8846487000255586    0.0862965069578850    0.0903259466978837 C
   0.3907749453367398    0.4188042547461151    0.5969231244401216 C
   0.6176969137531620    0.4047623308104054    0.9115953120185820 C
   0.8888744474224538    0.9165909609620226    0.6005476929387821 C
   0.1221186508295295    0.9128403352276292    0.9105966807478421 C
   0.6507536331021347    0.7628838358481089    0.3913625867455389 C
   0.3544335033484256    0.7757097499099053    0.1118637989719344 C
   0.1493240132370829    0.2564508488760346    0.3919652920660853 C
   0.8541777065896405    0.2551087289230108    0.1048217438203887 C
   0.3499485024941337    0.2402072742852887    0.6031341699607689 C
   0.6471068285153905    0.2414399602608052    0.8928596483139758 C
   0.8594056821930888    0.7376658576681467    0.6082757523552053 C
   0.1488154987581426    0.7184118967253459    0.8904370677832472 C
   0.4606682440551865    0.6715090542650923    0.3594915778429386 C
   0.5466995204172699    0.6807602592367066    0.1498511488996448 C
   0.9613364233932008    0.1824879860632964    0.3657382539358125 C
   0.0444695217656460    0.1808474471566762    0.1389155167650158 C
   0.5410564220415093    0.3199995243680900    0.6333936092353702 C
   0.4565246575717133    0.3091523288728469    0.8576999414109200 C
   0.0411949702995199    0.8120975906358444    0.6390919870979237 C
   0.9521316619112469    0.8300327817866344    0.8573254199741164 C
   0.4374869048916809    0.2673335359266441    0.3475994293562331 C
   0.5588614148735082    0.2662646032034256    0.1520721067362862 C
   0.9380168027306133    0.7882779059139318    0.3461959087070861 C
   0.0645539066603117    0.7813328237506969    0.1538588717364654 C
   0.5579027318388411    0.7288305673237591    0.6538459833010468 C
   0.4336306875095995    0.7346260353509704    0.8460602661855772 C
   0.0575164662741676    0.2397842554734756    0.6539754813708167 C
   0.9385820196039036    0.2211311743812378    0.8426821384140714 C
   0.4092857677513619    0.1529992292759066    0.3925264717132351 C
   0.5913414169015574    0.1560655304058926    0.1109638995456066 C
   0.9065696417360325    0.6408567505704172    0.3921662857477541 C
   0.0984316330633971    0.6531930501147796    0.1051410687589110 C
   0.5998202405039242    0.8432441018108161    0.6130863673124649 C
   0.3996690539115847    0.8613382219271409    0.8888875477441877 C
   0.0953720587954480    0.3604856647853525    0.6123827922042486 C
   0.9041861589738313    0.3370428128301791    0.8873492360106591 C
   0.3359714169750738    0.0442507039292752    0.3405916601047927 C
   0.6678881048478778    0.0397242468828621    0.1617209375801069 C
   0.8294731364749598    0.5494443153249632    0.3478674692590155 C
   0.1648554898373991    0.5391350167576563    0.1612497950040837 C
   0.6715234815388366    0.9557117896306612    0.6586037605120468 C
   0.3338369152114922    0.9415866233457323    0.8368276893152869 C
   0.1681248762250013    0.4494748772436340    0.6569644643384619 C
   0.8321156421559612    0.4791404454649080    0.8425267361475010 C
   0.2898314020189670    0.0669016852261939    0.2473322230603187 C
   0.7037063554043396    0.0601188281160391    0.2510341084276149 C
   0.7899388448103608    0.5442657351054176    0.2567919069872115 C
   0.2012221485414158    0.5458021791562850    0.2471429312126953 C
   0.7124100687369208    0.9603437939870170    0.7479254689254818 C
   0.2977848805571678    0.9526101851443213    0.7570247230344138 C
   0.2117645867145738    0.4404287516838992    0.7509361751878153 C
   0.7950082158635339    0.4406622248252988    0.7501844470752467 C
   0.5139809923118586    0.3692838326540326    0.3971290016461614 N
   0.4860233987090349    0.3742112710198656    0.1052635828145759 N
   0.0110292611864577    0.8760715247391671    0.4017077863769300 N
   0.9898787305633433    0.8745209630026368    0.1080666585434919 N
   0.4810605906533627    0.6214053001875267    0.6059480134256663 N
   0.5190445917877360    0.6161429659421169    0.8936379442757006 N
   0.9892276259264441    0.1210031011273670    0.5998097622548068 N
   0.0114539416683226    0.1281441960026848    0.8965186529228750 N
   0.5318244795567084    0.5323640129302224    0.3644064004041311 N
   0.4795322704687955    0.5484591063629765    0.1370858642994212 N
   0.0260937007594738    0.0290495670808845    0.3694934150369301 N
   0.9767657587362016    0.0358104051119553    0.1324924522592709 N
   0.4745092071851020    0.4540618338959558    0.6269913428952810 N
   0.5314525789883010    0.4691420708540877    0.8764806163524103 N
   0.9773128408818319    0.9622634108317901    0.6364208301279007 N
   0.0317950214875953    0.9525198751352051    0.8736956418874156 N
   0.6065401729606406    0.1517030684789807    0.4699598284090818 O
   0.3816073310420680    0.1312625409945008    0.0229048613868675 O
   0.1189385431817964    0.6414826752624749    0.4823100673863380 O
   0.8892897237618628    0.6512018160138573    0.0155645222786967 O
   0.3887726521280433    0.8532108313191454    0.5222603579301213 O
   0.6073939192237513    0.8585575312790275    0.9747756291023186 O
   0.8944300207508339    0.3551720277908663    0.5283919210695547 O
   0.1137529416235175    0.3583374433491741    0.9771312304364234 O
