H96 C88 N16 O8
1.0
  14.9466859165839328    0.0000000000000000   -7.4769135584806277
  -0.0000000000000005    7.3864000000000001    0.0000000000000005
   0.0000000000000000    0.0000000000000000   17.5904999999999987
H C N O
96 88 16 8
direct
   0.2967937149107590    0.1681397640203862    0.1525384404202553 H
   0.6979355585268386    0.1737947364253137    0.3445955028609836 H
   0.8015517311444247    0.6771916850530947    0.1534316600701235 H
   0.2008451326693566    0.6663413533559361    0.3468455710598139 H
   0.7005276279060070    0.8263333896824688    0.8496031018138213 H
   0.2962881906352651    0.8308197044034696    0.6516004255190321 H
   0.2032376575706726    0.3253660105493325    0.8499634551788419 H
   0.7987685159381929    0.3302457473303800    0.6504384724091570 H
   0.4202448384528475    0.3662272727123398    0.2339131041298207 H
   0.5783270440206487    0.3642814840633185    0.2644783940205410 H
   0.9191260955748257    0.8554152668810820    0.2307516886669012 H
   0.0785190147257486    0.8593599148442279    0.2637928266230598 H
   0.5767204581957310    0.6362571583198695    0.7652208929815493 H
   0.4204851141905580    0.6376938045835524    0.7303961563224791 H
   0.0806055009260769    0.1462075513008508    0.7680854721541925 H
   0.9215481014808804    0.1451403461280256    0.7352208366248619 H
   0.7228755404920143    0.4321407494449111    0.4828662474624753 H
   0.2726558353272890    0.4376786256482256    0.0144853289810530 H
   0.2268608300866247    0.9288316937253670    0.4868096496887757 H
   0.7748895445310506    0.9291851128102652    0.0122572970995465 H
   0.2741124022858496    0.5715650913155861    0.5149247247954581 H
   0.7221145115289924    0.5680549610841296    0.9833913889106356 H
   0.7774506765244243    0.0676448470581145    0.5170493126570423 H
   0.2223260444012149    0.0693606112743120    0.9837398273116944 H
   0.7110983178025457    0.7525036708121530    0.4146910547767253 H
   0.2883434936315767    0.7557714195762021    0.0898747766905263 H
   0.2154552061324209    0.2567186292274680    0.4156485355719916 H
   0.7855605735162138    0.2510460267808393    0.0857840809882445 H
   0.2899398796940184    0.2400948502305643    0.5863944958931945 H
   0.7122468989352803    0.2379153264451914    0.9146726456066114 H
   0.7869100862141963    0.7487194774637537    0.5847419356373875 H
   0.2110440743669402    0.7408158756604967    0.9103030264877934 H
   0.6339971634677339    0.8617999571798466    0.4255245506313776 H
   0.3655104953041309    0.8588310703997335    0.0769988104702806 H
   0.1349676232752159    0.3496615637815938    0.4260914608937332 H
   0.8695111234182570    0.3547273629829630    0.0780167767171399 H
   0.3687778745124251    0.1406221199497762    0.5747583808915483 H
   0.6337500928243419    0.1379958523673236    0.9248003614640210 H
   0.8650335337679695    0.6410602353315461    0.5726581365867055 H
   0.1319502585535443    0.6416785949831691    0.9263966438178785 H
   0.6152089799457267    0.7929618616570947    0.3301020529458743 H
   0.3824764295133913    0.7926534321779981    0.1651679340005694 H
   0.1168272240695402    0.2851527960107986    0.3330772633480245 H
   0.8811182361287208    0.2842210282401820    0.1667811844352552 H
   0.3804881538341694    0.2102098573879482    0.6644514856720500 H
   0.6154916991081218    0.2119580461876320    0.8326776327369136 H
   0.8792216285807452    0.7064896955079984    0.6652337159279401 H
   0.1147610337156375    0.7097075860041494    0.8310108161296766 H
   0.3977895901716370    0.6394447137782597    0.3192481152763032 H
   0.5993211502069096    0.6417140425235677    0.1843344766312996 H
   0.9003121509397775    0.1341810607088118    0.3187686488156227 H
   0.1023017570509297    0.1453262994940349    0.1846039020564346 H
   0.6033992733417520    0.3650414662300494    0.6828009041593910 H
   0.4017190329119185    0.3597381413214463    0.8193528060115106 H
   0.1021820198675150    0.8579572698148290    0.6859821671786843 H
   0.8972643444736972    0.8662932061623050    0.8153536663802848 H
   0.4749881657695021    0.7910102127946324    0.3400952953086793 H
   0.5298529304779970    0.7980992272263578    0.1619378290659744 H
   0.9743821956340973    0.2979691263225882    0.3390232504213719 H
   0.0291281987695555    0.3004207091077324    0.1609177681970037 H
   0.5253225230163969    0.2102881078685050    0.6594737439677476 H
   0.4701337033160446    0.2009526838269091    0.8398492984341973 H
   0.0273309656240291    0.7088271998774579    0.6572405458337296 H
   0.9706252995234723    0.7010907452316895    0.8380561184093843 H
   0.4585308774773139    0.6941368418156806    0.4169536380717284 H
   0.5408643322934882    0.6906477805681289    0.0856349922102613 H
   0.9564861511301762    0.1997361049642979    0.4159123119596261 H
   0.0450366065371519    0.1969267567916309    0.0852337993409306 H
   0.5417780789516684    0.2972312236789406    0.5848132952336971 H
   0.4571436586664963    0.3081578982919458    0.9118083649199972 H
   0.0410618196707711    0.8092734645428078    0.5862305860166428 H
   0.9586367237452549    0.8064023552129430    0.9121038246997846 H
   0.4327767984865890    0.1519716859669257    0.4503595552330417 H
   0.5690960780411198    0.1393050474449473    0.0509136319136424 H
   0.9300368840972966    0.6517943413128682    0.4483678249843169 H
   0.0681434943694371    0.6406878020635471    0.0517143725566577 H
   0.5658687125900538    0.8515506753968868    0.5479260768124242 H
   0.4329688912608053    0.8589718197129613    0.9491369168428235 H
   0.0681055667258713    0.3607409100614052    0.5497277434078720 H
   0.9332172047517295    0.3585496346143205    0.9492240148236425 H
   0.3065428406851565    0.9607827159052932    0.3692189913165024 H
   0.6908295437477757    0.9557340977631018    0.1333883070572089 H
   0.8105643291523315    0.4657425967252366    0.3705656768327373 H
   0.1882276661375495    0.4645817740676796    0.1296190769300942 H
   0.6897866272493066    0.0419617092976234    0.6333911480239872 H
   0.3117518525118377    0.0353807422469214    0.8692984804711541 H
   0.1894444638235219    0.5335664904462556    0.6309663787516683 H
   0.8065453178526547    0.5435953846534097    0.8678758358242699 H
   0.2469727807497318    0.9745416550533604    0.2221630032040587 H
   0.7531392350296749    0.9709321317382108    0.2801351447377679 H
   0.7473680727145989    0.4714177995581073    0.2208245681590049 H
   0.2576338956000312    0.4755379852204626    0.2791828507956423 H
   0.7546916878794077    0.0277793842381732    0.7815948349822235 H
   0.2416238592662761    0.0314704881158303    0.7209297640812631 H
   0.2542305278028424    0.5322375678532378    0.7810338746823913 H
   0.7437315663513689    0.5227342904288572    0.7202494697514348 H
   0.5999075963917682    0.3027757552313207    0.4511641616498957 C
   0.4004022810602300    0.2983485247657170    0.0489579593059839 C
   0.0970572655786728    0.7977270378050216    0.4485820780467681 C
   0.8970942570453845    0.8021581449778334    0.0505718158278312 C
   0.4029587957051994    0.7019544004911916    0.5513365810609820 C
   0.6001882897102195    0.7044058186415380    0.9504934908657071 C
   0.9005901484321209    0.1974745896104794    0.5544338379882801 C
   0.1018068086135398    0.1942533270335388    0.9490659717386792 C
   0.3246344394100965    0.1616605676793051    0.2114888145940577 C
   0.6719685409102232    0.1623208489024474    0.2846865405769479 C
   0.8258833086254711    0.6699306300755492    0.2105959521215895 C
   0.1762804197614856    0.6674586714955733    0.2897137282893886 C
   0.6743150914970605    0.8264590372079654    0.7861996467227317 C
   0.3287039739746180    0.8298897511637628    0.7130588238120484 C
   0.1735903662652641    0.3307167975660041    0.7892903665663699 C
   0.8261247859185027    0.3337519141659291    0.7160854269084892 C
   0.3986281411674617    0.2759280194587637    0.2580757894012244 C
   0.6025978103950025    0.2840368003410917    0.2406133551738965 C
   0.9013768910837193    0.7791828825020665    0.2608095867899368 C
   0.1014169278166955    0.7814888150961675    0.2416402116358626 C
   0.6013997476385592    0.7159441573308806    0.7404030249640223 C
   0.3987982645930256    0.7276607901489847    0.7592825976544750 C
   0.1042326458564944    0.2232031534279978    0.7387179942392119 C
   0.8987675271110031    0.2288073789116788    0.7607230763175766 C
   0.6616447841358704    0.4424618415200781    0.4569290937039328 C
   0.3357092345095559    0.4448477625010472    0.0445178289725217 C
   0.1642560089132844    0.9449518484438146    0.4553568763111600 C
   0.8366271443966715    0.9446467658852740    0.0468603953759117 C
   0.3362514649530101    0.5540506693034124    0.5447514242247087 C
   0.6638727291690074    0.5545251901187543    0.9544371603272532 C
   0.8375093555536276    0.0601178169868783    0.5481873427264302 C
   0.1631366884054062    0.0646379477106320    0.9535675286219640 C
   0.6118464267249084    0.5851365617927992    0.4049901823834382 C
   0.3852642457607380    0.5781963610951155    0.0949157887280183 C
   0.1122186992851592    0.0792872963433462    0.4053233568330847 C
   0.8868798991675879    0.0784205480758918    0.0922184640555687 C
   0.3879634133083376    0.4180146191642712    0.5926735091603265 C
   0.6116609016058492    0.4159801403794574    0.9064065422524153 C
   0.8880120777170908    0.9193026228622928    0.5951389359776240 C
   0.1143010806922587    0.9184914614359082    0.9095846046462004 C
   0.6442882619669296    0.7635433359522030    0.3913555884054848 C
   0.3496489939252629    0.7593767962767223    0.1045567530989669 C
   0.1498801418640485    0.2660738435078491    0.3947327495628522 C
   0.8507823844605482    0.2569133288318490    0.1047079206297085 C
   0.3556141087666509    0.2356738132406986    0.6081508894981266 C
   0.6506714601613121    0.2382470420568440    0.8937556391749873 C
   0.8530645328794234    0.7448433881138190    0.6078070465793540 C
   0.1491747985796807    0.7407700564600043    0.8961041214294508 C
   0.4587606173674968    0.6811863586910166    0.3619574445888954 C
   0.5454044862679561    0.6810319382737389    0.1424678556189206 C
   0.9573149997001837    0.1836565995966089    0.3563535895285441 C
   0.0394573436487174    0.1758255477910832    0.1403318328496686 C
   0.5433704595240068    0.3154770108594526    0.6398754979682773 C
   0.4593980600312532    0.3160842100652678    0.8614217192151075 C
   0.0409611052387416    0.8241781960012289    0.6426734956288042 C
   0.9586919914223327    0.8144827928759936    0.8578365888422573 C
   0.4372273126410836    0.2637348375901549    0.3464855944575289 C
   0.5627199656349205    0.2667327254537855    0.1541913960746186 C
   0.9369659894962059    0.7643128849179852    0.3462455567187359 C
   0.0606044437665714    0.7657385179356490    0.1482462362095812 C
   0.5651278427525583    0.7297487892087834    0.6531339791819420 C
   0.4377584927268449    0.7293649302137979    0.8460524380798423 C
   0.0652418982727540    0.2299996778994212    0.6527132590889395 C
   0.9374023019025024    0.2383638099411903    0.8484061548067461 C
   0.4073643915366890    0.1492667973622356    0.3922344131945321 C
   0.5925869422495857    0.1468716652349095    0.1095107607943848 C
   0.9024931399375752    0.6459240239233212    0.3879770806729467 C
   0.0948333557680911    0.6571430454844047    0.1093694841883072 C
   0.5922418610150406    0.8507099295963136    0.6082310089070715 C
   0.4058324032459605    0.8554518880898586    0.8895016428712834 C
   0.0948404039006195    0.3526573259406662    0.6078848417595329 C
   0.9036041130522686    0.3438643447575487    0.8905312697512441 C
   0.3355833952630373    0.0398662361191294    0.3421640222927773 C
   0.6707535469725878    0.0422494304160338    0.1609917795555896 C
   0.8337757401325090    0.5352135250604998    0.3408653996514466 C
   0.1706941775232328    0.5384182997248581    0.1593060871081845 C
   0.6661123794656706    0.9587023186623685    0.6555710185953292 C
   0.3340526724614462    0.9601623779642241    0.8395995583141954 C
   0.1680491159329871    0.4574116033345298    0.6561722917091732 C
   0.8342710108656783    0.4569160365033480    0.8399870232593567 C
   0.2930089913486826    0.0540377213187674    0.2538505488441505 C
   0.7065776830687588    0.0542644385271772    0.2466915482187215 C
   0.7940759617668850    0.5540567177252946    0.2533557939966374 C
   0.2084711716135940    0.5419418381497634    0.2468667286603550 C
   0.7051127850004786    0.9492396486976467    0.7439509971018697 C
   0.2923649404579505    0.9585820362542573    0.7519203531922499 C
   0.2095913213494308    0.4521848825826237    0.7493724481430960 C
   0.7899884834725360    0.4515423264344413    0.7518893247761437 C
   0.5153102984480410    0.3816159902290343    0.3997175428053560 N
   0.4872834548664262    0.3715339069832208    0.1035633596998912 N
   0.0141960020258288    0.8686665182918050    0.3979694711444613 N
   0.9886323753610239    0.8747639277149206    0.1027480075441943 N
   0.4835666256425504    0.6192091822223506    0.6000458971476355 N
   0.5175904788354718    0.6227303947778927    0.8992345036638897 N
   0.9843378130041456    0.1211929920769539    0.6027517925389477 N
   0.0118786153383108    0.1212806891289267    0.8976864433951321 N
   0.5252264027213146    0.5443269848967722    0.3644039618609330 N
   0.4738237977368195    0.5497331084726106    0.1329931120995732 N
   0.0228818676893662    0.0396865702250856    0.3678341474069922 N
   0.9772184007394907    0.0401944666260688    0.1320841375676025 N
   0.4786029410461675    0.4567513314657441    0.6346498416896154 N
   0.5218774374737528    0.4564425416145529    0.8642869621113803 N
   0.9763166942867423    0.9581014230934529    0.6308700835507289 N
   0.0255443280256924    0.9514915185441905    0.8654177773910654 N
   0.6080692266976783    0.1446056096221837    0.4740740951703855 O
   0.3860989984192278    0.1430034524515330    0.0213304151453940 O
   0.1092761375481699    0.6486075587577254    0.4761929425411883 O
   0.8896637996505580    0.6448943699954436    0.0273255836450958 O
   0.3881864091337262    0.8597767955889412    0.5217824833331749 O
   0.6130546238791763    0.8563636271326943    0.9740697881522088 O
   0.8918112507767083    0.3558864865292515    0.5263701207538891 O
   0.1090369797051663    0.3548091939638371    0.9728212761184629 O
