H96 C88 N16 O8
1.0
  14.9466859165839328    0.0000000000000000   -7.4769135584806277
  -0.0000000000000005    7.3864000000000001    0.0000000000000005
   0.0000000000000000    0.0000000000000000   17.5904999999999987
H C N O
96 88 16 8
direct
   0.3111428083692371    0.1688050263560551    0.1503507884568240 H
   0.7054524465811258    0.1797684913337456    0.3547428959682642 H
   0.7991130168584863    0.6672768958173001    0.1548797689600786 H
   0.2031080268305184    0.6639682411395639    0.3416200991501223 H
   0.7015374685160541    0.8118151179909961    0.8489507488676398 H
   0.3021046812306382    0.8132295148306009    0.6535864113581220 H
   0.2002365273278983    0.3230899523750689    0.8564449195353235 H
   0.8042520900611878    0.3270718104112464    0.6574734106976337 H
   0.4159119762941202    0.3511387775915193    0.2383927552533391 H
   0.5689314677573678    0.3673758724692766    0.2636332886147802 H
   0.9216727328830860    0.8607668345122179    0.2342459108334685 H
   0.0848964602456244    0.8760335976602507    0.2673874605733755 H
   0.5802219809385948    0.6355003084830513    0.7614586780555037 H
   0.4131162730081568    0.6414577689299185    0.7317505958430607 H
   0.0794967565482772    0.1398816055486402    0.7660978022793039 H
   0.9183525410853238    0.1343373092478178    0.7319385396587402 H
   0.7187682434591461    0.4394188791610766    0.4862776241226954 H
   0.2816804553507892    0.4301307676338021    0.0142175208142411 H
   0.2216749097859295    0.9308039567837185    0.4797020490222315 H
   0.7777583732147756    0.9300479517481244    0.0146562404259255 H
   0.2757881085275638    0.5669578148007538    0.5150170692178814 H
   0.7364359997735060    0.5871915644407359    0.9860474171127205 H
   0.7738195433297873    0.0569675450454204    0.5082301230129698 H
   0.2204388523573991    0.0631272151165184    0.9864936764386553 H
   0.7138824636964222    0.7571560059750221    0.4199119982735089 H
   0.2897125326016394    0.7533062744532385    0.0881535957318194 H
   0.2161806635623841    0.2580524094035154    0.4204875857333769 H
   0.7776140191614350    0.2529333047717733    0.0719245542929032 H
   0.2795577127577713    0.2492183812366740    0.5837021720349510 H
   0.7146703980615208    0.2404732921707572    0.9197324683187447 H
   0.7792983031225330    0.7643268172503708    0.5817409471194172 H
   0.2099366526889744    0.7374303355647551    0.9104233816450265 H
   0.6276232629617566    0.8534193104800644    0.4198252338912227 H
   0.3711205842697167    0.8673048465356347    0.0734826041816740 H
   0.1252188693618990    0.3572284339771043    0.4187705345967333 H
   0.8774631869598778    0.3595742664995525    0.0779342878789303 H
   0.3617148153278651    0.1484501507128319    0.5780059050465445 H
   0.6307139141263213    0.1422646057876333    0.9246210934219244 H
   0.8577382884565032    0.6556284546322486    0.5651292045805359 H
   0.1392096591801641    0.6309278571955009    0.9341877238007724 H
   0.6151769342756295    0.7827984798254954    0.3389574205512036 H
   0.3846967174576147    0.7641688973234860    0.1621371408361985 H
   0.1108703897595658    0.2989375233215463    0.3313934666411134 H
   0.8884573191105141    0.2796727559620859    0.1710755468378685 H
   0.3809508342656152    0.1969796800985667    0.6676406213490259 H
   0.6118663667662747    0.2020868863644906    0.8341452788085901 H
   0.8807433381302467    0.7133112113860278    0.6674312140836365 H
   0.1177186189005783    0.7043828943939032    0.8360597576453241 H
   0.4020169735042697    0.6473621036872869    0.3248275785672568 H
   0.5960984317155076    0.6316572646080912    0.1733211800622446 H
   0.8995764658580910    0.1356050104571895    0.3207933267688099 H
   0.1027837025309886    0.1283113479434029    0.1891697559267895 H
   0.5986131326762661    0.3645967035651722    0.6839785331075031 H
   0.4025850080260636    0.3607654334144044    0.8225278902280325 H
   0.1036676841515434    0.8603092324077287    0.6899634463666204 H
   0.9002080970850920    0.8608351680706646    0.8255963590890988 H
   0.4792693342105540    0.7812417985980360    0.3431108343463675 H
   0.5186550366282882    0.7911808571837792    0.1576615935851373 H
   0.9680583080859191    0.2734552334154321    0.3374873189630584 H
   0.0294194220793263    0.2910681614588510    0.1600729762273765 H
   0.5317643377806003    0.1991812047913712    0.6547379225242764 H
   0.4723402673352840    0.2115744889856772    0.8385205890123829 H
   0.0285731110406989    0.7098437759352612    0.6626442802224271 H
   0.9633142565177659    0.7120380638405166    0.8371629528283074 H
   0.4569561542655299    0.7141388230009538    0.4055559452774677 H
   0.5381957629331773    0.7003645253966975    0.0845343549820014 H
   0.9550546262389341    0.2000800962430908    0.4179522582590690 H
   0.0342835604281002    0.1835351568914935    0.0835646485742775 H
   0.5427398727091187    0.2923507540789339    0.5906486330277878 H
   0.4566795624828605    0.2925434411407099    0.9097774406753181 H
   0.0454158014594450    0.8111468120547288    0.5880171246646227 H
   0.9524995406672254    0.8085092463762589    0.9109817138083247 H
   0.4307962269262944    0.1514924727875165    0.4547441164261967 H
   0.5680259478326832    0.1488160301521620    0.0499682310467064 H
   0.9350541586499758    0.6417224025141579    0.4505395178294582 H
   0.0619843342675478    0.6463079204078432    0.0460408673349510 H
   0.5706507149742140    0.8670217167415228    0.5461238605254257 H
   0.4347844689421564    0.8578011858267544    0.9493078814771159 H
   0.0680591125763696    0.3859972593124776    0.5502464075238995 H
   0.9361952595725577    0.3469570198325807    0.9547960091797405 H
   0.3139109411768244    0.9522356171328975    0.3668770222306324 H
   0.6944116420590195    0.9618018759581211    0.1293652764397554 H
   0.8131155483224515    0.4708258552905483    0.3670641706282400 H
   0.1838814476318506    0.4546643046387325    0.1288085496467753 H
   0.6911285493491118    0.0456387779592834    0.6272155214407914 H
   0.3176125546384849    0.0390213624029344    0.8685923137404423 H
   0.1986458072060270    0.5294524046171476    0.6373086280662370 H
   0.8105705857887776    0.5487451450765052    0.8713299825328212 H
   0.2420859963663419    0.9665724172380750    0.2200977171158216 H
   0.7578154337488479    0.9882557263516644    0.2738241331839727 H
   0.7356611952240647    0.4685710378832600    0.2105438565656943 H
   0.2543069108565353    0.4682280640924041    0.2823804303139935 H
   0.7512800355546683    0.0270382360298887    0.7733547431780785 H
   0.2374302187171516    0.0407325671025524    0.7156072740174425 H
   0.2551945575152774    0.5423714515159729    0.7672857131190590 H
   0.7428267124998402    0.5404341683570691    0.7264169601678940 H
   0.6037755581857398    0.2961927542303563    0.4492214715336270 C
   0.4029844541235853    0.2965901577654239    0.0444707926542839 C
   0.0915517405500346    0.8061996006952492    0.4463635588898393 C
   0.8979908825931692    0.7818344443604445    0.0566884294000827 C
   0.3982776773329595    0.7050151628759074    0.5564596613102655 C
   0.6021880490233177    0.7065910536946208    0.9553861574586181 C
   0.9022473739537751    0.2104778773408381    0.5594853471994297 C
   0.0944166285618360    0.2050429375157162    0.9514019244082879 C
   0.3193615196493096    0.1612773056592690    0.2083919505435178 C
   0.6742589368623387    0.1646827068134859    0.2906611154980893 C
   0.8277097141094288    0.6769609447266809    0.2109390919031793 C
   0.1784401899079078    0.6596008135693000    0.2964681756803947 C
   0.6682394484257566    0.8289448940968598    0.7928716861205548 C
   0.3235838762699502    0.8323947742997353    0.7147021293821986 C
   0.1739398247296641    0.3434138929086473    0.7851089149207142 C
   0.8156556488753854    0.3386770737552692    0.7180767272738938 C
   0.3884744824450049    0.2714232131834125    0.2525313882825752 C
   0.5959875825412911    0.2743541378544498    0.2389100916369929 C
   0.8979180478827321    0.7803371852323830    0.2628270140743013 C
   0.0986953723848426    0.7710537976261723    0.2333732227881840 C
   0.6028506476023535    0.7040347843581519    0.7441641496682541 C
   0.4035838872930417    0.7198666737157334    0.7650099484155122 C
   0.0991770692616516    0.1961379818586209    0.7425816792082742 C
   0.8951989120404737    0.2011649962929398    0.7624740814462971 C
   0.6702360850045085    0.4437873901704592    0.4542772500777611 C
   0.3340665779360920    0.4312092044542813    0.0421227217681850 C
   0.1537126696672395    0.9203776332158005    0.4563565561477976 C
   0.8363470631122449    0.9388041969885839    0.0451035848730446 C
   0.3369587669767836    0.5532814884512163    0.5410271110827967 C
   0.6753453477212212    0.5510026026925021    0.9669703369421375 C
   0.8326469831206762    0.0412555353826773    0.5396086548285911 C
   0.1667012515636270    0.0642695077953330    0.9595584003193022 C
   0.6181342975369918    0.5816381120557089    0.4214456401626029 C
   0.3799486061407060    0.5795140842882561    0.0868614752118409 C
   0.1091786173729595    0.0709865123058998    0.4046239661134455 C
   0.8821470627092214    0.0893570038925301    0.0870796720164854 C
   0.3864514134564707    0.4175301638330535    0.5960652825620585 C
   0.6160846219439192    0.3910168339284510    0.9124163576731251 C
   0.8932679147155683    0.9215677442024646    0.5996680401533727 C
   0.1215760591595523    0.8997817290142793    0.9115155499014453 C
   0.6514016506926599    0.7537770255186719    0.3949042351400706 C
   0.3561002157155119    0.7671811836115874    0.1167127291434938 C
   0.1489914125849242    0.2627958038083621    0.3927537775027884 C
   0.8517134250935057    0.2512700891591122    0.1007398932422084 C
   0.3462690101548506    0.2396105847468771    0.6051601729613916 C
   0.6462031245988654    0.2514032543862307    0.8952182817312307 C
   0.8620747867219991    0.7374153269998558    0.6059772896327937 C
   0.1497538899660450    0.7162141104254010    0.8914972581583409 C
   0.4621854607579483    0.6660364575967621    0.3627931863147896 C
   0.5451666862512125    0.6763384106782481    0.1510684402033529 C
   0.9548830423283645    0.1844128921553632    0.3652961918766516 C
   0.0443292475575959    0.1902306430500868    0.1351517819190484 C
   0.5451765895530728    0.3302669115814640    0.6323757927037343 C
   0.4605582750135485    0.3197344636437934    0.8572701500797564 C
   0.0436945663685130    0.8026446813592468    0.6364681831043036 C
   0.9546085281709649    0.8306923180014778    0.8568548750222211 C
   0.4393213920264937    0.2703438679778083    0.3535564615050041 C
   0.5583278729477923    0.2613100186324727    0.1551793866967858 C
   0.9384722282803210    0.7911083783293364    0.3500928619673548 C
   0.0673092285356667    0.7751732480040007    0.1604682727507665 C
   0.5581480116270928    0.7218089880675200    0.6600409814058382 C
   0.4321748606835686    0.7424357225278694    0.8479992860551236 C
   0.0569212610963245    0.2444208423257099    0.6535916574719521 C
   0.9453417155358239    0.2300857342282982    0.8416572699990408 C
   0.4031991476436336    0.1509311341629418    0.3915722922835573 C
   0.5837223147033431    0.1594858012859902    0.1085395793921754 C
   0.9041995112357463    0.6309729282638626    0.3933661825361883 C
   0.1012654506180046    0.6419199963203737    0.1050940417525860 C
   0.5989584127707206    0.8459615884282073    0.6167491148639326 C
   0.3922759427183074    0.8683924889990932    0.8849679149074865 C
   0.0963280434524014    0.3709231608071298    0.6124346545155288 C
   0.8996645532110701    0.3316315182372679    0.8833835878859234 C
   0.3381533771359006    0.0372518783733951    0.3398536038805882 C
   0.6722899723955537    0.0268192896178626    0.1647929621807429 C
   0.8273458916964431    0.5491643177641972    0.3445654402756756 C
   0.1620019708217803    0.5467050718315776    0.1534598806960239 C
   0.6738371421056399    0.9631098053945377    0.6546634923682633 C
   0.3314918951761683    0.9363130860761729    0.8375686884357497 C
   0.1712607046340881    0.4398825497096176    0.6559228506595204 C
   0.8295033366336718    0.4796760516648875    0.8355792811970886 C
   0.2906837246189193    0.0648264856069996    0.2425887125106937 C
   0.7110885553826004    0.0714199398693650    0.2556003287574835 C
   0.7934846159994222    0.5408676409184860    0.2589219666641482 C
   0.1937745293635173    0.5514986876296235    0.2445033035822047 C
   0.7086698904147724    0.9555562984541726    0.7426880763016319 C
   0.3018125926095903    0.9641657241642554    0.7596936594571008 C
   0.2142169981316920    0.4440323633935589    0.7524777496265441 C
   0.7932140040163373    0.4427487357189617    0.7540736713435539 C
   0.5088608262357511    0.3857513645733995    0.3934971422697192 N
   0.4871762150745486    0.3875167333472739    0.1085755394534997 N
   0.0069507995742818    0.8766530469112118    0.3997483498741545 N
   0.9927375701881918    0.8651388321348671    0.1114106606736002 N
   0.4815163903222060    0.6265718504520233    0.6048194811499777 N
   0.5174406992054832    0.6166100339018467    0.8897043878881180 N
   0.9903192883909173    0.1163279864837959    0.6046021598762729 N
   0.0103242139687232    0.1307779980010529    0.8998008816462343 N
   0.5329934715471470    0.5279131993527278    0.3649141012027818 N
   0.4802221472611899    0.5511382762306081    0.1394328877362061 N
   0.0268805920288513    0.0271653577839847    0.3704033070136157 N
   0.9718817421884782    0.0324919363898146    0.1323189440332625 N
   0.4760307726841075    0.4584765313524137    0.6280690050232105 N
   0.5342300418037312    0.4676079250561414    0.8767356945127277 N
   0.9819497491864713    0.9582567361073639    0.6362023771466934 N
   0.0301904127064811    0.9505240566850049    0.8734759397847062 N
   0.6039655280590825    0.1484971284927595    0.4641045103616109 O
   0.3826650147596001    0.1299418167901966    0.0264516046628859 O
   0.1172258639075877    0.6418770057919373    0.4751132836397118 O
   0.8885492417136522    0.6484246267692003    0.0235646738774277 O
   0.3885956576208694    0.8472323408548277    0.5237308429363721 O
   0.6070500090106637    0.8602374969862379    0.9759075278396737 O
   0.8956912903514538    0.3646327480536580    0.5306945198769762 O
   0.1128171129709290    0.3619559708996652    0.9785793304233880 O
