H96 C88 N16 O8
1.0
  14.9466859165839328    0.0000000000000000   -7.4769135584806277
  -0.0000000000000005    7.3864000000000001    0.0000000000000005
   0.0000000000000000    0.0000000000000000   17.5904999999999987
H C N O
96 88 16 8
direct
   0.3103696941670192    0.1746373384611070    0.1513067590559352 H
   0.7027858948854626    0.1786143219829355    0.3519629960002787 H
   0.8001162821239216    0.6648822371974551    0.1578244766652178 H
   0.2050554438015263    0.6673747029713948    0.3442631585491006 H
   0.7021566905017982    0.8095442175589533    0.8518394706093712 H
   0.3013231403840583    0.8068163438456160    0.6538759329801204 H
   0.1975089594733288    0.3245466427043316    0.8537578214218697 H
   0.8040462969570312    0.3244695946763412    0.6547677452813010 H
   0.4173413849136696    0.3551874516875999    0.2370731432460344 H
   0.5689189890331134    0.3622547933278081    0.2654868062193541 H
   0.9201990479352139    0.8606587280948210    0.2310681555026667 H
   0.0824872389698519    0.8807292918463749    0.2663940266824736 H
   0.5799880727687688    0.6422468776858332    0.7614793537662763 H
   0.4164396714945102    0.6418344071238420    0.7328802590912676 H
   0.0768187758177108    0.1360820488104872    0.7655562867116997 H
   0.9193257370718668    0.1406956863636017    0.7328690331603724 H
   0.7220126533593744    0.4406739546816743    0.4872073521407231 H
   0.2799729824961695    0.4243793572989253    0.0138685738516323 H
   0.2220763258012078    0.9253920548758904    0.4815456560745524 H
   0.7796603419632099    0.9270109045027755    0.0135047466325084 H
   0.2736629149839154    0.5664475308769872    0.5162984036779841 H
   0.7338940816914835    0.5833453766977781    0.9858647703688258 H
   0.7744713782339168    0.0594437803999082    0.5110939910240744 H
   0.2186782565480751    0.0620737781116719    0.9833692280850823 H
   0.7107934322335596    0.7546063085348368    0.4188084382990497 H
   0.2906275110680829    0.7506018758626344    0.0860554536715490 H
   0.2137397505971283    0.2615371231219159    0.4181707406614481 H
   0.7807313776491197    0.2505591597804503    0.0729862618223568 H
   0.2816671085247535    0.2544708856091279    0.5846476945775222 H
   0.7134365997133639    0.2467138202048353    0.9188708995324478 H
   0.7818893635659917    0.7678616607935503    0.5838567496633307 H
   0.2111361375874332    0.7411926423961261    0.9088013598260348 H
   0.6262004422699482    0.8507013715263593    0.4215259589328055 H
   0.3684523743464531    0.8637481815794867    0.0731904316845987 H
   0.1220405796947402    0.3560180666589316    0.4181461807222958 H
   0.8749220576395038    0.3591799446462054    0.0786953413216693 H
   0.3610364819905328    0.1509862324555682    0.5751459605668703 H
   0.6328928990380345    0.1390315666497146    0.9238714364941299 H
   0.8590220995391955    0.6578428915937677    0.5681294555723921 H
   0.1413256675696979    0.6327826950332394    0.9330279824506760 H
   0.6179940883978012    0.7832659879516223    0.3386346838132403 H
   0.3856540158606407    0.7684754186685809    0.1645806405106105 H
   0.1117065456162561    0.2930924264521916    0.3305036511188731 H
   0.8889994667907068    0.2850940740955270    0.1729445903045660 H
   0.3827244644159244    0.2027127535263474    0.6685078712141976 H
   0.6147959315460390    0.2036142850455242    0.8366036505131741 H
   0.8792896129925210    0.7192328825103680    0.6662044487116913 H
   0.1147119679994326    0.7072333695501121    0.8344353080703545 H
   0.4014280980527665    0.6487531161093472    0.3218408636843094 H
   0.5939895096521089    0.6284162171006090    0.1741614988287699 H
   0.8968538298237014    0.1318483055540897    0.3201250465259128 H
   0.1045318607620443    0.1246664362494291    0.1880338525315284 H
   0.5972807120096690    0.3601481550400304    0.6815932993677617 H
   0.4056399944637067    0.3581788380827505    0.8234245879947767 H
   0.1053399120285257    0.8651703717353976    0.6892980413215192 H
   0.8993676896452036    0.8556460454848683    0.8235593489731664 H
   0.4764120729634978    0.7784501531169737    0.3409957701983438 H
   0.5207852184283746    0.7895196725024101    0.1564893589986590 H
   0.9669246892315227    0.2798025798482977    0.3372241194482872 H
   0.0305464496834626    0.2920769150260885    0.1579094890149859 H
   0.5305273478145416    0.2024612942709858    0.6564655038315189 H
   0.4697127229345723    0.2080668657711737    0.8383657537032430 H
   0.0302383782279550    0.7049051625141424    0.6620191388882954 H
   0.9623194781251512    0.7078565958048992    0.8388094316934444 H
   0.4546806546316411    0.7097449325739791    0.4055566870478024 H
   0.5367588762083109    0.7022420197239116    0.0863664037857347 H
   0.9569334115893079    0.1972472056235351    0.4167220692820099 H
   0.0375163063964816    0.1843544925008170    0.0842939031931928 H
   0.5408582518710333    0.2947473311783902    0.5877250389566235 H
   0.4592841104416038    0.2902023548337280    0.9093961107893483 H
   0.0435697206577042    0.8106457774064770    0.5895935114079733 H
   0.9531380782798877    0.8021590248701423    0.9120746012729316 H
   0.4316476224117188    0.1512709478306519    0.4523587383859239 H
   0.5664401010775405    0.1458605274292016    0.0471207867614682 H
   0.9333885227847424    0.6359087702054442    0.4501735858877868 H
   0.0607634606563125    0.6505170895834990    0.0474915477283167 H
   0.5684964341194049    0.8636783680737331    0.5468688456963019 H
   0.4344928301561639    0.8557969053858775    0.9518875763252721 H
   0.0685010579840425    0.3795669630914733    0.5496294390954204 H
   0.9332157574947949    0.3499294987532660    0.9531947356002723 H
   0.3160141441524084    0.9573849562942791    0.3673122579357472 H
   0.6971437047307768    0.9604968509740970    0.1320725483430181 H
   0.8108357571522649    0.4680287107020232    0.3678119366592467 H
   0.1837046003502662    0.4613760040068158    0.1283956045522068 H
   0.6900500976891960    0.0500449261315417    0.6248035087516083 H
   0.3185005134990653    0.0423162070105483    0.8713353412608629 H
   0.1991142381589205    0.5228226155826556    0.6379211784097688 H
   0.8104590432290202    0.5429843978780895    0.8727722035652223 H
   0.2408967022246574    0.9610177535901462    0.2183202134565805 H
   0.7576687145894380    0.9828124379039898    0.2754468796231366 H
   0.7374529875226946    0.4691592788742390    0.2136930364165653 H
   0.2509770681611510    0.4687907391839848    0.2811003427493313 H
   0.7513465152063437    0.0278899253620900    0.7705637111645622 H
   0.2407095508273381    0.0420288712334156    0.7171384823022795 H
   0.2553815021468239    0.5422419169361397    0.7702026547857255 H
   0.7431767245760562    0.5337047448731658    0.7266445784988430 H
   0.6013569978062473    0.2935249296679895    0.4498063031024063 C
   0.4010632994078732    0.2995238209527976    0.0456283358977987 C
   0.0910017302739932    0.8089645392581626    0.4435776966248416 C
   0.8990257081502075    0.7879265859422928    0.0580013482719742 C
   0.4001380159348282    0.7006063243509332    0.5587178598529602 C
   0.5989605640606291    0.7081841175721705    0.9536807764689668 C
   0.8999820500605161    0.2090276667891152    0.5605233637003740 C
   0.0935365633887404    0.2023631897061024    0.9485270283426194 C
   0.3198324285241887    0.1551976793129095    0.2097762357271598 C
   0.6745930803886383    0.1664266317618451    0.2935349251776441 C
   0.8291462192656914    0.6802520771455463    0.2137129602371782 C
   0.1766856706889030    0.6620999316146969    0.2935416530527930 C
   0.6691309331816150    0.8318783081751321    0.7908034869784817 C
   0.3261009158965145    0.8351753213525983    0.7172355882193776 C
   0.1763765177301882    0.3387764225823353    0.7861193887119439 C
   0.8175677997127503    0.3361459063192429    0.7168134468559128 C
   0.3913353640522743    0.2746354152157998    0.2543397671737295 C
   0.5972101286989210    0.2681337607173613    0.2390079677438355 C
   0.8995492067709829    0.7839554605191764    0.2615581819988897 C
   0.1011461513340066    0.7704764756040428    0.2363343612306348 C
   0.6027239000905927    0.7077981741092714    0.7417500626310650 C
   0.4014407535849717    0.7185830282311808    0.7662139038543336 C
   0.0980161438972017    0.1977129764797622    0.7395057765940789 C
   0.8945638451915556    0.2061250339243252    0.7640616689901892 C
   0.6673153794240964    0.4444371735351719    0.4516770964672600 C
   0.3368230250642806    0.4350075217911000    0.0430709251535190 C
   0.1546363776959657    0.9263295083808035    0.4578524671801535 C
   0.8384488416095223    0.9336954514921599    0.0454601213606084 C
   0.3398722527771204    0.5557930993883278    0.5431812691707750 C
   0.6746144403439348    0.5506176706748342    0.9638906095209941 C
   0.8300806561402996    0.0408651271163976    0.5403337383761535 C
   0.1636042150163595    0.0619576662040232    0.9587024320251647 C
   0.6202336406112621    0.5852502899795030    0.4207265001676350 C
   0.3796742595899817    0.5737640899534131    0.0852631509736958 C
   0.1076600410389779    0.0733227032525697    0.4016434989390301 C
   0.8823184055385104    0.0911994783208308    0.0898837510538382 C
   0.3893245323567162    0.4207916676645735    0.5967926101945800 C
   0.6151345659513725    0.3943220707962253    0.9096669941708128 C
   0.8906100179620461    0.9191354483148839    0.5999296500229216 C
   0.1209685960740075    0.9038288206232221    0.9134765957051073 C
   0.6490069322022177    0.7582338963202894    0.3932255520995926 C
   0.3573152918584884    0.7707331178009087    0.1150408258189777 C
   0.1469239436143507    0.2576839642819808    0.3912537898464268 C
   0.8526953502981909    0.2547539157511260    0.1034470925332129 C
   0.3449830882889866    0.2338766559277204    0.6035702948051904 C
   0.6440495144106075    0.2467828644788936    0.8933196699065938 C
   0.8614353489753418    0.7429934528127532    0.6072213749418343 C
   0.1477645492491386    0.7199135942723260    0.8889756674465336 C
   0.4610683321056014    0.6707929641136626    0.3605324973604364 C
   0.5452555440327369    0.6780565663542312    0.1483578887371676 C
   0.9562063167659079    0.1882770360114306    0.3638135522339831 C
   0.0448053964890070    0.1849361499687703    0.1370784580724992 C
   0.5419770371808230    0.3295694752245228    0.6302395563344385 C
   0.4575599252762144    0.3181124455635333    0.8570562510915305 C
   0.0420452545859527    0.8080569569315804    0.6367420776878253 C
   0.9548281224671593    0.8293588406182127    0.8597287067788036 C
   0.4395154616084008    0.2754934727712374    0.3518014316555665 C
   0.5590168917486790    0.2646411572475207    0.1530680620350867 C
   0.9390062852115342    0.7871465215817997    0.3480602329274708 C
   0.0656177535246298    0.7778187350255846    0.1575630332842078 C
   0.5589781171270256    0.7199412171498384    0.6577543399116664 C
   0.4303525681099064    0.7455205682736268    0.8452237173684538 C
   0.0584043700049154    0.2384207377282303    0.6546009048856108 C
   0.9435322818970155    0.2249282635316711    0.8419008488185857 C
   0.4057807165141916    0.1501547591118683    0.3944476532317203 C
   0.5868954642026151    0.1583221327928229    0.1106440205482774 C
   0.9073350984006424    0.6320766912978706    0.3938237077412746 C
   0.0991097450382105    0.6463241589390847    0.1030357111354413 C
   0.5986803850310803    0.8394335955959541    0.6159169918609323 C
   0.3955616285500089    0.8690127836376037    0.8868305460027622 C
   0.0945283215861173    0.3652666087397926    0.6113546990660415 C
   0.9022110828000069    0.3312379210711661    0.8863018040078446 C
   0.3352522923816780    0.0379486203211118    0.3400051799894181 C
   0.6706907509484983    0.0308892015626360    0.1659331873655278 C
   0.8276711770152847    0.5551930098129415    0.3459664801046430 C
   0.1624204112077543    0.5460534065825755    0.1564445518366449 C
   0.6751015334811690    0.9607941877142069    0.6576462866786703 C
   0.3315915406329281    0.9374984867071625    0.8404082829709525 C
   0.1682440145307890    0.4424161613346279    0.6540264386815905 C
   0.8276993540507056    0.4825279410985697    0.8368851167902467 C
   0.2901158800299478    0.0635973930260316    0.2451005847549376 C
   0.7081943928711614    0.0685795701105246    0.2535895029713541 C
   0.7902756689725208    0.5404098371052665    0.2567783024901413 C
   0.1963052403215966    0.5486811208372956    0.2441452201522643 C
   0.7113606137974249    0.9532712370607950    0.7452215931478503 C
   0.3009928433902450    0.9577127829601121    0.7588430880471890 C
   0.2112966138614283    0.4471931151014036    0.7508360207768100 C
   0.7926474552689898    0.4386629434728720    0.7516183021277730 C
   0.5105599550890420    0.3804706589954435    0.3952576989726598 N
   0.4881632368224151    0.3829508345062204    0.1070714801912204 N
   0.0081910547802129    0.8785948531395010    0.3977647399255427 N
   0.9924850236564623    0.8647954260097831    0.1084726536359839 N
   0.4784754807840875    0.6267109170104461    0.6023438395467037 N
   0.5202748418870758    0.6157037538165172    0.8894477697448234 N
   0.9896835312847716    0.1129814696573518    0.6019209143836755 N
   0.0088268195792889    0.1354405876060616    0.8975434768985828 N
   0.5340739052610426    0.5316427064567872    0.3631860724700344 N
   0.4773799797098198    0.5484094569716392    0.1372582225401956 N
   0.0238355352505503    0.0264452028555459    0.3679716959624471 N
   0.9750633285803662    0.0323739393872710    0.1345480189408196 N
   0.4737752480100019    0.4534825092383172    0.6270160766587010 N
   0.5318368850134831    0.4649664028257955    0.8773659451098009 N
   0.9811138212633009    0.9638323890941926    0.6372939405751169 N
   0.0284365496084875    0.9482497574047559    0.8705063611193161 N
   0.6043730256687404    0.1540690942379845    0.4658542101975336 O
   0.3806859526984928    0.1281346396651310    0.0234480343483279 O
   0.1171106431285844    0.6392807104262755    0.4776875411590721 O
   0.8893708505874335    0.6496243313863359    0.0212049671386500 O
   0.3880305123903330    0.8515204205808142    0.5213442977903092 O
   0.6102317677352533    0.8595876514242490    0.9764257679113326 O
   0.8968274975229132    0.3583862361013629    0.5316946519941361 O
   0.1114206804355368    0.3583372245194520    0.9758970943549207 O
