H96 C88 N16 O8
1.0
  14.9466859165839328    0.0000000000000000   -7.4769135584806277
  -0.0000000000000005    7.3864000000000001    0.0000000000000005
   0.0000000000000000    0.0000000000000000   17.5904999999999987
H C N O
96 88 16 8
direct
   0.2985850527775840    0.1785958121228884    0.1544452030821154 H
   0.7037211579499584    0.1768355582841665    0.3486789934749540 H
   0.8010954604353655    0.6781931519918725    0.1544698090798981 H
   0.2032034181515537    0.6770786245057623    0.3492718877973466 H
   0.7026812937356564    0.8313799565524846    0.8461335707340194 H
   0.2970297647340874    0.8311244801115233    0.6536220385808422 H
   0.2007381952365865    0.3335255660886571    0.8474269964208059 H
   0.7994551356978293    0.3233352726840392    0.6508082241939339 H
   0.4223273198716198    0.3636303108359507    0.2319709426069619 H
   0.5793615879438863    0.3531464024953175    0.2666935914628016 H
   0.9206300413691177    0.8641831429714538    0.2353137075584275 H
   0.0794147197644048    0.8661853456254335    0.2658509925992274 H
   0.5810629349485051    0.6361951573779062    0.7694492210085216 H
   0.4174630983273606    0.6389809082666104    0.7326350564494184 H
   0.0779346409673358    0.1342814305805267    0.7670252153143620 H
   0.9226110296284578    0.1346992942136104    0.7340837987310345 H
   0.7241437800848100    0.4401894096159949    0.4867238790407932 H
   0.2720210874429604    0.4325727496350832    0.0137334101823151 H
   0.2233889867585332    0.9393969949796115    0.4837974823062944 H
   0.7729461343024687    0.9343271916717024    0.0111096514167790 H
   0.2771357725978538    0.5674787209661264    0.5129370711184168 H
   0.7221498700410227    0.5632256868144927    0.9833903203393054 H
   0.7781914430182479    0.0658537284422123    0.5144299600852194 H
   0.2254856225151401    0.0690982337580364    0.9836414961223213 H
   0.7093832715474968    0.7579126280130167    0.4129691246182656 H
   0.2850835209841854    0.7580190710811834    0.0874753894581408 H
   0.2156258318515577    0.2558306147812835    0.4152847772600505 H
   0.7908462178308057    0.2556029697794061    0.0887791125232548 H
   0.2854926456813285    0.2384215087597255    0.5862847006002940 H
   0.7156907871061353    0.2432183706966795    0.9141138584212186 H
   0.7871628391153314    0.7442935725192719    0.5838112050479127 H
   0.2113069531673697    0.7404615251725080    0.9103944359040985 H
   0.6363558165272410    0.8574450174436150    0.4267242944351218 H
   0.3679971261245466    0.8535359718502392    0.0783645184785977 H
   0.1335174077329043    0.3521943963777529    0.4222735289882891 H
   0.8644211446362536    0.3599168815230103    0.0735753162602834 H
   0.3637551906042443    0.1421627655894253    0.5748749372083397 H
   0.6307415971814208    0.1490603801693766    0.9235763245909708 H
   0.8685429834803908    0.6463849699046417    0.5738191755620189 H
   0.1307889381461166    0.6411663806490745    0.9224814248009594 H
   0.6214276634014272    0.7911295523907628    0.3335862596812734 H
   0.3850056819265926    0.7911208011771911    0.1699614493015009 H
   0.1195137576034897    0.2967686944436450    0.3326232806090700 H
   0.8790854765771859    0.2943264605756373    0.1666069404365314 H
   0.3815900365852881    0.2131164010080354    0.6698010551301513 H
   0.6148172647372896    0.2105887774446326    0.8310831631514637 H
   0.8844479438514183    0.7049479871903854    0.6684533944272021 H
   0.1152109348409859    0.7087699655561501    0.8325875069498376 H
   0.4006994775097995    0.6420877905841071    0.3157701837430646 H
   0.6003669750778424    0.6331941507212626    0.1818908210925542 H
   0.9018199814100180    0.1400938789666321    0.3172430545079891 H
   0.1025898927639909    0.1331652075732741    0.1834931310215480 H
   0.5986340667523617    0.3594685251680088    0.6803168660421923 H
   0.3967483673046032    0.3645548912547636    0.8176740729457409 H
   0.1039578578554583    0.8572535662966202    0.6852320278724956 H
   0.8976742260288548    0.8669500143925757    0.8160057634491924 H
   0.4731175090108747    0.7973880084372844    0.3379578918237813 H
   0.5251656371835091    0.7897053210356559    0.1588728179377605 H
   0.9755319358672591    0.2956565034912041    0.3401244403850788 H
   0.0272789105616491    0.2961042920856916    0.1623880768397776 H
   0.5305699990553215    0.2044349029343254    0.6604595639506009 H
   0.4704995904140460    0.2101571548712394    0.8397372904596955 H
   0.0249059726005415    0.7088572901994856    0.6597875142366266 H
   0.9709299509992707    0.6996307575858106    0.8403846133974624 H
   0.4560535237027818    0.6947751671118259    0.4158436834378660 H
   0.5450084088224711    0.6958242717698286    0.0889252698675479 H
   0.9574783304380344    0.1976981702240422    0.4111932879370566 H
   0.0397445483803163    0.2002921597949986    0.0845795326166227 H
   0.5447332779707542    0.3021221470339494    0.5889848897405581 H
   0.4546995081273845    0.3001440761178552    0.9121529253649049 H
   0.0429639178755177    0.7974577972537821    0.5874165566166252 H
   0.9591287401635717    0.7985720603279679    0.9133203520291431 H
   0.4303619814326903    0.1516234562773705    0.4506928922572665 H
   0.5713172480735064    0.1423347087692810    0.0503677288047177 H
   0.9331066170642666    0.6512728956086860    0.4497723619045754 H
   0.0675633996190750    0.6426473203578457    0.0520149877527231 H
   0.5697128842355772    0.8595260495131203    0.5491651097502187 H
   0.4319441514917452    0.8514156408874211    0.9475224544192966 H
   0.0659616959444216    0.3520945406336679    0.5504348592110597 H
   0.9340677423893784    0.3564734575451824    0.9497292659432854 H
   0.3103775626628039    0.9583579329059347    0.3666806504937826 H
   0.6890587342439036    0.9632019819175979    0.1326344159104414 H
   0.8120769388874604    0.4622218530741652    0.3713186763100144 H
   0.1888578339334520    0.4657812750648348    0.1300471596030024 H
   0.6876326941360835    0.0410181156982699    0.6288837698316292 H
   0.3121332582238740    0.0411722859743390    0.8714013347574364 H
   0.1928443837203047    0.5387895103703264    0.6342514415929462 H
   0.8086318714108641    0.5463779210799830    0.8688735786374546 H
   0.2429058617801415    0.9677637415151881    0.2223004040335237 H
   0.7525283205034979    0.9717822870146376    0.2788069053635835 H
   0.7425594651126234    0.4762407430662042    0.2203912018340405 H
   0.2537603321927948    0.4651728233940599    0.2781636451511524 H
   0.7533236717626373    0.0248118467823544    0.7789290305216920 H
   0.2433681816773527    0.0258391544359885    0.7224879752576833 H
   0.2567759067768597    0.5231526269809198    0.7804588904118964 H
   0.7421783221962894    0.5284335612962903    0.7218579710110544 H
   0.5967178241266425    0.3035400684034231    0.4467211082692686 C
   0.4007568246962953    0.2947492536942111    0.0532129531753072 C
   0.0993068484886149    0.8014002654546504    0.4454293412992359 C
   0.9029641169989618    0.7997292988627432    0.0510271392585987 C
   0.3986398327556384    0.6992112101112135    0.5484399738170284 C
   0.6014136357499285    0.7026867860522298    0.9511423883255431 C
   0.9011553830639376    0.2039564688951898    0.5499663798951264 C
   0.1007775870695946    0.2032721488136792    0.9510091664680108 C
   0.3248204523454003    0.1732663873389623    0.2128837946365328 C
   0.6721208874305586    0.1665968981771065    0.2884111116706247 C
   0.8271030993336819    0.6660332924066091    0.2109916333869783 C
   0.1756798422394313    0.6651745020602596    0.2852537491489963 C
   0.6727469289685252    0.8278405940553439    0.7846444670502524 C
   0.3267400116510186    0.8393621910358384    0.7142647607270458 C
   0.1746699623422069    0.3392425452549331    0.7878501047532648 C
   0.8275200480651552    0.3388750757323378    0.7145590333667969 C
   0.3964649489511744    0.2821908169640489    0.2613493873692759 C
   0.5989709941721578    0.2789088675077399    0.2365096413949028 C
   0.8995885716085313    0.7734431807215393    0.2630663600821957 C
   0.0995448012012406    0.7831501782153151    0.2380794384338959 C
   0.6024899976605780    0.7286225157219308    0.7397827427128750 C
   0.3997883271135036    0.7270328380752119    0.7628081993893017 C
   0.1038666813127554    0.2261601406405607    0.7415054846530115 C
   0.8957989650675726    0.2188690930498900    0.7583826998520055 C
   0.6631587990619112    0.4446870295315282    0.4567353821719595 C
   0.3370859894888172    0.4418736597782729    0.0426823220630320 C
   0.1591871245548370    0.9414855318496791    0.4512715537597604 C
   0.8393904632816988    0.9411901418149209    0.0489373854184049 C
   0.3377796500937365    0.5653180299462058    0.5468148995779966 C
   0.6604779532196385    0.5579801586211595    0.9510995736570556 C
   0.8408215225711066    0.0600481883089660    0.5487323025077587 C
   0.1623687777198025    0.0647549218565498    0.9528979859251495 C
   0.6175662690260546    0.5790937070591364    0.4085119619841479 C
   0.3875094794246431    0.5856721962586514    0.0955707045176931 C
   0.1161853134960337    0.0860660456730576    0.4053676260814381 C
   0.8859596644231931    0.0809215932803004    0.0958447889253119 C
   0.3832348028130676    0.4171336199649655    0.5897423101481151 C
   0.6168466480487388    0.4141649388927210    0.9099330576646859 C
   0.8864165102263898    0.9230400899882220    0.5929296322902707 C
   0.1117110302255981    0.9167858168660971    0.9048542913482134 C
   0.6470600067658604    0.7661667380443919    0.3950599301909219 C
   0.3506184278443648    0.7575147856651562    0.1044705583160526 C
   0.1460738130772627    0.2554491952048643    0.3924247892433532 C
   0.8536887435254638    0.2588288987185355    0.1097380809913230 C
   0.3505218756899757    0.2343512811980605    0.6074824826999258 C
   0.6475451127282948    0.2451564385319343    0.8931831425530026 C
   0.8534846802540224    0.7448895697580533    0.6072553517897442 C
   0.1448623406976534    0.7363384370127837    0.8904680493664171 C
   0.4556798927691929    0.6824071352871450    0.3561142681062844 C
   0.5409147500490614    0.6801295331906628    0.1432443527283554 C
   0.9569460628423608    0.1841221163144592    0.3605562385926565 C
   0.0452692559382204    0.1814143215392022    0.1431117015804603 C
   0.5393036715069492    0.3165078250508203    0.6396478135526428 C
   0.4600171467688454    0.3167220368638446    0.8614632938972349 C
   0.0439109732239020    0.8144388180193033    0.6419466264516402 C
   0.9556351539783057    0.8251402649518458    0.8579507311801812 C
   0.4361767244877015    0.2739706860224864    0.3481642014107932 C
   0.5631571961140943    0.2709336556416903    0.1541059923737322 C
   0.9383338650605821    0.7694357927428022    0.3461700117112489 C
   0.0621148316681820    0.7635108242007800    0.1492235301161458 C
   0.5648234565868806    0.7325738569176704    0.6508915705631485 C
   0.4354830378534376    0.7308285462101826    0.8458991795560316 C
   0.0633972014144917    0.2378678591582712    0.6518436243689210 C
   0.9400528940228020    0.2265674511972582    0.8491003184247319 C
   0.4064242578773045    0.1480551561088811    0.3880993533265334 C
   0.5975662367394157    0.1520281544010381    0.1094260085150826 C
   0.9019302113511284    0.6516626742321566    0.3867795167643833 C
   0.0950124136048846    0.6487456341750393    0.1076717722190603 C
   0.5981621597309722    0.8497029715739931    0.6131620944587767 C
   0.4026993594826421    0.8441588869563750    0.8895119990992402 C
   0.0946209541440999    0.3528590418124158    0.6078834102186684 C
   0.9068892588424748    0.3542901561407609    0.8902599210636711 C
   0.3334392068325738    0.0463715994078467    0.3430476603758470 C
   0.6644995527035611    0.0408532387527858    0.1565072232048406 C
   0.8336275757429886    0.5346056066626549    0.3420557535623741 C
   0.1672413119628409    0.5472409244258797    0.1593587545146373 C
   0.6699817180262994    0.9599463446541353    0.6617563836399228 C
   0.3291651941051795    0.9581103533272158    0.8390895215293298 C
   0.1649447806128733    0.4553006865243849    0.6576810395566521 C
   0.8311816002491704    0.4633175912250609    0.8428107671337396 C
   0.2949641991410571    0.0416291196448078    0.2539372818999210 C
   0.7076575472499198    0.0521888866488918    0.2490087400995978 C
   0.7910476112576302    0.5432085816109499    0.2534040061548968 C
   0.2099680406437156    0.5462585787968760    0.2477979832851860 C
   0.7093177216769446    0.9565921065472018    0.7474090507878842 C
   0.2963418429900948    0.9500847039074101    0.7539643380986517 C
   0.2077261371088627    0.4553140651504947    0.7447224506679172 C
   0.7949742745332119    0.4553783975811882    0.7561351886935335 C
   0.5119434039634325    0.3789305627280607    0.3978168637928452 N
   0.4825336245658264    0.3776458555151533    0.0986457343501905 N
   0.0171296115715883    0.8733402775790807    0.3982818609997908 N
   0.9829395667603820    0.8749121775287264    0.1019445470751917 N
   0.4828757728683229    0.6226095927425397    0.5982501333444992 N
   0.5133514541702752    0.6213880430313949    0.8963409448359815 N
   0.9865127152567373    0.1229288351937030    0.5989520223926800 N
   0.0154807563038970    0.1199977693181199    0.8975707237244452 N
   0.5245054906768565    0.5403391883560215    0.3644652690146921 N
   0.4747619201611919    0.5482628754418265    0.1348849118677745 N
   0.0218495014463710    0.0415848752362225    0.3668912302914726 N
   0.9783286817378831    0.0413900783430969    0.1337258632395162 N
   0.4769334687132716    0.4620649096730055    0.6335718621260676 N
   0.5250499713344803    0.4521680733532495    0.8693993278534590 N
   0.9752293537754313    0.9549383531772381    0.6357815714404526 N
   0.0246266682338057    0.9494409203612980    0.8671544449485475 N
   0.6100042421496524    0.1501478769210802    0.4743576183995100 O
   0.3902835677473740    0.1456657486097416    0.0272987295083427 O
   0.1141619790397495    0.6414993043272706    0.4759351830342475 O
   0.8888968098885914    0.6393633417114325    0.0262232118191349 O
   0.3906741821882130    0.8506964714274049    0.5258792839617977 O
   0.6122511163394674    0.8505197698331052    0.9744774019107179 O
   0.8873813137397570    0.3518591865966897    0.5215600616813064 O
   0.1095036546871396    0.3512522060426144    0.9764520485329172 O
