H768 C704 N128 O64
1.0
  29.8933718331678655    0.0000000000000000  -14.9538271169612553
  -0.0000000000000009   14.7728000000000002    0.0000000000000009
   0.0000000000000000    0.0000000000000000   35.1809999999999974
H C N O
768 704 128 64
direct
   0.1495000000000000    0.0865500000000000    0.0765000000000000 H
   0.1495000000000000    0.0865500000000000    0.5765000000000001 H
   0.1495000000000000    0.5865500000000000    0.0765000000000000 H
   0.1495000000000000    0.5865500000000000    0.5765000000000000 H
   0.6495000000000001    0.0865500000000000    0.0765000000000000 H
   0.6495000000000001    0.0865500000000000    0.5765000000000000 H
   0.6495000000000001    0.5865500000000000    0.0765000000000000 H
   0.6495000000000001    0.5865500000000000    0.5765000000000000 H
   0.3505000000000001    0.0865500000000000    0.1735000000000000 H
   0.3505000000000001    0.0865500000000000    0.6735000000000000 H
   0.3505000000000001    0.5865500000000000    0.1735000000000000 H
   0.3505000000000001    0.5865500000000000    0.6735000000000000 H
   0.8505000000000001    0.0865500000000000    0.1735000000000001 H
   0.8505000000000001    0.0865500000000000    0.6735000000000001 H
   0.8505000000000001    0.5865500000000000    0.1735000000000001 H
   0.8505000000000001    0.5865500000000000    0.6735000000000001 H
   0.3995000000000000    0.3365500000000000    0.0765000000000000 H
   0.3995000000000000    0.3365500000000000    0.5765000000000000 H
   0.3995000000000000    0.8365500000000001    0.0765000000000000 H
   0.3995000000000000    0.8365500000000001    0.5765000000000000 H
   0.8995000000000000    0.3365500000000000    0.0765000000000000 H
   0.8995000000000000    0.3365500000000000    0.5765000000000000 H
   0.8995000000000000    0.8365500000000001    0.0765000000000001 H
   0.8995000000000000    0.8365500000000001    0.5765000000000001 H
   0.1005000000000000    0.3365500000000000    0.1735000000000000 H
   0.1005000000000000    0.3365500000000000    0.6735000000000000 H
   0.1005000000000000    0.8365500000000001    0.1735000000000000 H
   0.1005000000000000    0.8365500000000001    0.6735000000000000 H
   0.6005000000000000    0.3365500000000000    0.1735000000000000 H
   0.6005000000000000    0.3365500000000000    0.6735000000000001 H
   0.6005000000000000    0.8365500000000001    0.1735000000000001 H
   0.6005000000000000    0.8365500000000001    0.6735000000000001 H
   0.3505000000000001    0.4134500000000000    0.4235000000000000 H
   0.3505000000000001    0.4134500000000000    0.9235000000000001 H
   0.3505000000000001    0.9134500000000001    0.4235000000000000 H
   0.3505000000000001    0.9134500000000001    0.9235000000000001 H
   0.8505000000000001    0.4134500000000000    0.4235000000000001 H
   0.8505000000000001    0.4134500000000000    0.9235000000000001 H
   0.8505000000000001    0.9134500000000001    0.4235000000000002 H
   0.8505000000000001    0.9134500000000001    0.9235000000000001 H
   0.1495000000000000    0.4134500000000000    0.3265000000000001 H
   0.1495000000000000    0.4134500000000000    0.8265000000000001 H
   0.1495000000000000    0.9134500000000001    0.3265000000000000 H
   0.1495000000000000    0.9134500000000001    0.8265000000000000 H
   0.6495000000000001    0.4134500000000000    0.3265000000000001 H
   0.6495000000000001    0.4134500000000000    0.8265000000000001 H
   0.6495000000000001    0.9134500000000001    0.3265000000000001 H
   0.6495000000000001    0.9134500000000001    0.8265000000000001 H
   0.1005000000000000    0.1634500000000000    0.4235000000000000 H
   0.1005000000000000    0.1634500000000000    0.9235000000000000 H
   0.1005000000000000    0.6634500000000000    0.4235000000000000 H
   0.1005000000000000    0.6634500000000000    0.9235000000000000 H
   0.6005000000000000    0.1634500000000000    0.4235000000000000 H
   0.6005000000000000    0.1634500000000000    0.9235000000000001 H
   0.6005000000000000    0.6634500000000000    0.4235000000000001 H
   0.6005000000000000    0.6634500000000000    0.9235000000000001 H
   0.3995000000000000    0.1634500000000000    0.3265000000000000 H
   0.3995000000000000    0.1634500000000000    0.8265000000000000 H
   0.3995000000000000    0.6634500000000000    0.3265000000000001 H
   0.3995000000000000    0.6634500000000000    0.8265000000000000 H
   0.8995000000000000    0.1634500000000000    0.3265000000000001 H
   0.8995000000000000    0.1634500000000000    0.8265000000000000 H
   0.8995000000000000    0.6634500000000000    0.3265000000000001 H
   0.8995000000000000    0.6634500000000000    0.8265000000000001 H
   0.2103000000000000    0.1799500000000000    0.1165500000000000 H
   0.2103000000000000    0.1799500000000000    0.6165500000000000 H
   0.2103000000000000    0.6799500000000001    0.1165500000000000 H
   0.2103000000000000    0.6799500000000001    0.6165500000000000 H
   0.7103000000000000    0.1799500000000000    0.1165500000000001 H
   0.7103000000000000    0.1799500000000000    0.6165500000000000 H
   0.7103000000000000    0.6799500000000001    0.1165500000000001 H
   0.7103000000000000    0.6799500000000001    0.6165500000000002 H
   0.2897000000000001    0.1799500000000000    0.1334500000000000 H
   0.2897000000000001    0.1799500000000000    0.6334500000000000 H
   0.2897000000000001    0.6799500000000001    0.1334500000000000 H
   0.2897000000000001    0.6799500000000001    0.6334500000000000 H
   0.7897000000000001    0.1799500000000000    0.1334500000000001 H
   0.7897000000000001    0.1799500000000000    0.6334500000000001 H
   0.7897000000000001    0.6799500000000001    0.1334500000000001 H
   0.7897000000000001    0.6799500000000001    0.6334500000000002 H
   0.4603000000000000    0.4299500000000001    0.1165500000000000 H
   0.4603000000000000    0.4299500000000001    0.6165500000000000 H
   0.4603000000000001    0.9299500000000002    0.1165500000000000 H
   0.4603000000000001    0.9299500000000002    0.6165500000000000 H
   0.9603000000000000    0.4299500000000001    0.1165500000000000 H
   0.9603000000000000    0.4299500000000001    0.6165500000000000 H
   0.9603000000000000    0.9299500000000002    0.1165500000000001 H
   0.9603000000000000    0.9299500000000002    0.6165500000000002 H
   0.0397000000000000    0.4299500000000001    0.1334500000000000 H
   0.0397000000000000    0.4299500000000001    0.6334500000000001 H
   0.0397000000000000    0.9299500000000002    0.1334500000000000 H
   0.0397000000000000    0.9299500000000002    0.6334500000000001 H
   0.5397000000000001    0.4299500000000001    0.1334500000000001 H
   0.5397000000000001    0.4299500000000001    0.6334500000000001 H
   0.5397000000000001    0.9299500000000002    0.1334500000000001 H
   0.5397000000000001    0.9299500000000002    0.6334500000000001 H
   0.2897000000000001    0.3200500000000000    0.3834500000000001 H
   0.2897000000000001    0.3200500000000000    0.8834500000000001 H
   0.2897000000000001    0.8200500000000001    0.3834500000000000 H
   0.2897000000000001    0.8200500000000001    0.8834500000000001 H
   0.7897000000000001    0.3200500000000000    0.3834500000000001 H
   0.7897000000000001    0.3200500000000000    0.8834500000000001 H
   0.7897000000000001    0.8200500000000001    0.3834500000000001 H
   0.7897000000000001    0.8200500000000001    0.8834500000000002 H
   0.2103000000000000    0.3200500000000000    0.3665500000000000 H
   0.2103000000000000    0.3200500000000000    0.8665500000000000 H
   0.2103000000000000    0.8200500000000001    0.3665500000000000 H
   0.2103000000000000    0.8200500000000001    0.8665500000000000 H
   0.7103000000000000    0.3200500000000000    0.3665500000000001 H
   0.7103000000000000    0.3200500000000000    0.8665500000000000 H
   0.7103000000000000    0.8200500000000001    0.3665500000000001 H
   0.7103000000000000    0.8200500000000001    0.8665500000000000 H
   0.0397000000000000    0.0700500000000000    0.3834500000000000 H
   0.0397000000000000    0.0700500000000000    0.8834500000000001 H
   0.0397000000000000    0.5700500000000001    0.3834500000000000 H
   0.0397000000000000    0.5700500000000001    0.8834500000000001 H
   0.5397000000000001    0.0700500000000000    0.3834500000000001 H
   0.5397000000000001    0.0700500000000000    0.8834500000000001 H
   0.5397000000000001    0.5700500000000001    0.3834500000000001 H
   0.5397000000000001    0.5700500000000001    0.8834500000000001 H
   0.4603000000000000    0.0700500000000000    0.3665500000000000 H
   0.4603000000000000    0.0700500000000000    0.8665500000000000 H
   0.4603000000000000    0.5700500000000001    0.3665500000000000 H
   0.4603000000000000    0.5700500000000001    0.8665500000000000 H
   0.9603000000000000    0.0700500000000000    0.3665500000000000 H
   0.9603000000000000    0.0700500000000000    0.8665500000000000 H
   0.9603000000000000    0.5700500000000001    0.3665500000000001 H
   0.9603000000000000    0.5700500000000001    0.8665500000000002 H
   0.3624500000000000    0.2171500000000000    0.2429000000000000 H
   0.3624500000000000    0.2171500000000000    0.7429000000000000 H
   0.3624500000000000    0.7171500000000001    0.2429000000000000 H
   0.3624500000000000    0.7171500000000001    0.7429000000000000 H
   0.8624500000000000    0.2171500000000000    0.2429000000000001 H
   0.8624500000000000    0.2171500000000000    0.7429000000000000 H
   0.8624500000000000    0.7171500000000001    0.2429000000000001 H
   0.8624500000000000    0.7171500000000001    0.7429000000000001 H
   0.1375500000000000    0.2171500000000000    0.0071000000000000 H
   0.1375500000000000    0.2171500000000000    0.5071000000000000 H
   0.1375500000000000    0.7171500000000001    0.0071000000000000 H
   0.1375500000000000    0.7171500000000001    0.5071000000000000 H
   0.6375500000000001    0.2171500000000000    0.0071000000000000 H
   0.6375500000000001    0.2171500000000000    0.5071000000000001 H
   0.6375500000000001    0.7171500000000001    0.0071000000000001 H
   0.6375500000000001    0.7171500000000001    0.5071000000000001 H
   0.1124500000000000    0.4671500000000001    0.2429000000000000 H
   0.1124500000000000    0.4671500000000001    0.7429000000000000 H
   0.1124500000000000    0.9671500000000002    0.2429000000000000 H
   0.1124500000000000    0.9671500000000002    0.7429000000000000 H
   0.6124499999999999    0.4671500000000001    0.2429000000000000 H
   0.6124499999999999    0.4671500000000001    0.7429000000000000 H
   0.6124499999999999    0.9671500000000002    0.2429000000000001 H
   0.6124499999999999    0.9671500000000002    0.7429000000000000 H
   0.3875500000000001    0.4671500000000001    0.0071000000000000 H
   0.3875500000000001    0.4671500000000001    0.5071000000000000 H
   0.3875500000000001    0.9671500000000002    0.0071000000000000 H
   0.3875500000000001    0.9671500000000002    0.5071000000000000 H
   0.8875500000000001    0.4671500000000001    0.0071000000000001 H
   0.8875500000000001    0.4671500000000001    0.5071000000000001 H
   0.8875500000000001    0.9671500000000002    0.0071000000000001 H
   0.8875500000000001    0.9671500000000002    0.5071000000000001 H
   0.1375500000000000    0.2828500000000000    0.2571000000000000 H
   0.1375500000000000    0.2828500000000000    0.7571000000000000 H
   0.1375500000000000    0.7828500000000000    0.2571000000000001 H
   0.1375500000000000    0.7828500000000000    0.7571000000000000 H
   0.6375500000000001    0.2828500000000000    0.2571000000000001 H
   0.6375500000000001    0.2828500000000000    0.7571000000000001 H
   0.6375500000000001    0.7828500000000000    0.2571000000000001 H
   0.6375500000000001    0.7828500000000000    0.7571000000000002 H
   0.3624500000000000    0.2828500000000000    0.4929000000000000 H
   0.3624500000000000    0.2828500000000000    0.9929000000000000 H
   0.3624500000000000    0.7828500000000000    0.4929000000000000 H
   0.3624500000000000    0.7828500000000000    0.9929000000000000 H
   0.8624500000000000    0.2828500000000000    0.4929000000000001 H
   0.8624500000000000    0.2828500000000000    0.9929000000000000 H
   0.8624500000000000    0.7828500000000000    0.4929000000000001 H
   0.8624500000000000    0.7828500000000000    0.9929000000000001 H
   0.3875500000000001    0.0328500000000000    0.2571000000000001 H
   0.3875500000000001    0.0328500000000000    0.7571000000000001 H
   0.3875500000000001    0.5328500000000000    0.2571000000000001 H
   0.3875500000000001    0.5328500000000000    0.7571000000000001 H
   0.8875500000000001    0.0328500000000000    0.2571000000000001 H
   0.8875500000000001    0.0328500000000000    0.7571000000000001 H
   0.8875500000000001    0.5328500000000000    0.2571000000000001 H
   0.8875500000000001    0.5328500000000000    0.7571000000000001 H
   0.1124500000000000    0.0328500000000000    0.4929000000000001 H
   0.1124500000000000    0.0328500000000000    0.9929000000000001 H
   0.1124500000000000    0.5328500000000000    0.4929000000000000 H
   0.1124500000000000    0.5328500000000000    0.9929000000000000 H
   0.6124499999999999    0.0328500000000000    0.4929000000000000 H
   0.6124499999999999    0.0328500000000000    0.9929000000000000 H
   0.6124499999999999    0.5328500000000000    0.4929000000000001 H
   0.6124499999999999    0.5328500000000000    0.9929000000000001 H
   0.3562000000000000    0.3782000000000000    0.2066000000000000 H
   0.3562000000000000    0.3782000000000000    0.7066000000000000 H
   0.3562000000000000    0.8782000000000000    0.2066000000000000 H
   0.3562000000000000    0.8782000000000000    0.7066000000000000 H
   0.8562000000000002    0.3782000000000000    0.2066000000000001 H
   0.8562000000000002    0.3782000000000000    0.7066000000000000 H
   0.8562000000000002    0.8782000000000000    0.2066000000000001 H
   0.8562000000000002    0.8782000000000000    0.7066000000000001 H
   0.1438000000000000    0.3782000000000000    0.0434000000000000 H
   0.1438000000000000    0.3782000000000000    0.5434000000000000 H
   0.1438000000000000    0.8782000000000000    0.0434000000000000 H
   0.1438000000000000    0.8782000000000000    0.5434000000000000 H
   0.6438000000000000    0.3782000000000000    0.0434000000000000 H
   0.6438000000000000    0.3782000000000000    0.5434000000000000 H
   0.6438000000000000    0.8782000000000000    0.0434000000000000 H
   0.6438000000000000    0.8782000000000000    0.5434000000000001 H
   0.1062000000000001    0.1282000000000000    0.2066000000000000 H
   0.1062000000000001    0.1282000000000000    0.7066000000000001 H
   0.1062000000000001    0.6282000000000000    0.2066000000000000 H
   0.1062000000000001    0.6282000000000000    0.7066000000000001 H
   0.6062000000000002    0.1282000000000000    0.2066000000000000 H
   0.6062000000000002    0.1282000000000000    0.7066000000000000 H
   0.6062000000000002    0.6282000000000000    0.2066000000000001 H
   0.6062000000000002    0.6282000000000000    0.7066000000000001 H
   0.3938000000000000    0.1282000000000000    0.0434000000000000 H
   0.3938000000000000    0.1282000000000000    0.5434000000000000 H
   0.3938000000000000    0.6282000000000000    0.0434000000000000 H
   0.3938000000000000    0.6282000000000000    0.5434000000000000 H
   0.8938000000000000    0.1282000000000000    0.0434000000000000 H
   0.8938000000000000    0.1282000000000000    0.5434000000000000 H
   0.8938000000000000    0.6282000000000000    0.0434000000000000 H
   0.8938000000000000    0.6282000000000000    0.5434000000000001 H
   0.1438000000000000    0.1218000000000000    0.2934000000000000 H
   0.1438000000000000    0.1218000000000000    0.7934000000000000 H
   0.1438000000000000    0.6218000000000000    0.2934000000000000 H
   0.1438000000000000    0.6218000000000000    0.7934000000000000 H
   0.6438000000000000    0.1218000000000000    0.2934000000000000 H
   0.6438000000000000    0.1218000000000000    0.7934000000000000 H
   0.6438000000000000    0.6218000000000000    0.2934000000000000 H
   0.6438000000000000    0.6218000000000000    0.7934000000000000 H
   0.3562000000000000    0.1218000000000000    0.4566000000000000 H
   0.3562000000000000    0.1218000000000000    0.9566000000000000 H
   0.3562000000000000    0.6218000000000000    0.4566000000000000 H
   0.3562000000000000    0.6218000000000000    0.9566000000000000 H
   0.8562000000000002    0.1218000000000000    0.4566000000000001 H
   0.8562000000000002    0.1218000000000000    0.9566000000000000 H
   0.8562000000000002    0.6218000000000000    0.4566000000000001 H
   0.8562000000000002    0.6218000000000000    0.9566000000000000 H
   0.3938000000000000    0.3718000000000001    0.2934000000000000 H
   0.3938000000000000    0.3718000000000001    0.7934000000000001 H
   0.3938000000000000    0.8718000000000001    0.2934000000000000 H
   0.3938000000000000    0.8718000000000001    0.7934000000000001 H
   0.8938000000000000    0.3718000000000001    0.2934000000000000 H
   0.8938000000000000    0.3718000000000001    0.7934000000000000 H
   0.8938000000000000    0.8718000000000001    0.2934000000000000 H
   0.8938000000000000    0.8718000000000001    0.7934000000000001 H
   0.1062000000000001    0.3718000000000001    0.4566000000000000 H
   0.1062000000000001    0.3718000000000001    0.9566000000000000 H
   0.1062000000000001    0.8718000000000001    0.4566000000000000 H
   0.1062000000000001    0.8718000000000001    0.9566000000000000 H
   0.6062000000000002    0.3718000000000001    0.4566000000000001 H
   0.6062000000000002    0.3718000000000001    0.9566000000000001 H
   0.6062000000000002    0.8718000000000001    0.4566000000000001 H
   0.6062000000000002    0.8718000000000001    0.9566000000000001 H
   0.3166500000000000    0.4276500000000000    0.2123500000000000 H
   0.3166500000000000    0.4276500000000000    0.7123500000000001 H
   0.3166500000000001    0.9276500000000001    0.2123500000000001 H
   0.3166500000000001    0.9276500000000001    0.7123500000000001 H
   0.8166500000000001    0.4276500000000000    0.2123500000000001 H
   0.8166500000000001    0.4276500000000000    0.7123500000000000 H
   0.8166500000000001    0.9276500000000001    0.2123500000000001 H
   0.8166500000000001    0.9276500000000001    0.7123500000000001 H
   0.1833500000000000    0.4276500000000000    0.0376500000000000 H
   0.1833500000000000    0.4276500000000000    0.5376500000000001 H
   0.1833500000000000    0.9276500000000001    0.0376500000000000 H
   0.1833500000000000    0.9276500000000001    0.5376500000000001 H
   0.6833500000000001    0.4276500000000000    0.0376500000000001 H
   0.6833500000000001    0.4276500000000000    0.5376500000000001 H
   0.6833500000000001    0.9276500000000001    0.0376500000000001 H
   0.6833500000000001    0.9276500000000001    0.5376500000000002 H
   0.0666500000000000    0.1776500000000000    0.2123500000000000 H
   0.0666500000000000    0.1776500000000000    0.7123500000000000 H
   0.0666500000000000    0.6776500000000001    0.2123500000000000 H
   0.0666500000000000    0.6776500000000001    0.7123500000000000 H
   0.5666500000000001    0.1776500000000000    0.2123500000000001 H
   0.5666500000000001    0.1776500000000000    0.7123500000000000 H
   0.5666500000000001    0.6776500000000001    0.2123500000000001 H
   0.5666500000000001    0.6776500000000001    0.7123500000000001 H
   0.4333500000000001    0.1776500000000000    0.0376500000000000 H
   0.4333500000000001    0.1776500000000000    0.5376500000000001 H
   0.4333500000000001    0.6776500000000001    0.0376500000000001 H
   0.4333500000000001    0.6776500000000001    0.5376500000000001 H
   0.9333500000000001    0.1776500000000000    0.0376500000000001 H
   0.9333500000000001    0.1776500000000000    0.5376500000000001 H
   0.9333500000000001    0.6776500000000001    0.0376500000000001 H
   0.9333500000000001    0.6776500000000001    0.5376500000000001 H
   0.1833500000000000    0.0723500000000000    0.2876500000000000 H
   0.1833500000000000    0.0723500000000000    0.7876500000000000 H
   0.1833500000000000    0.5723500000000001    0.2876500000000000 H
   0.1833500000000000    0.5723500000000001    0.7876500000000000 H
   0.6833500000000001    0.0723500000000000    0.2876500000000001 H
   0.6833500000000001    0.0723500000000000    0.7876500000000001 H
   0.6833500000000001    0.5723500000000001    0.2876500000000001 H
   0.6833500000000001    0.5723500000000001    0.7876500000000001 H
   0.3166500000000000    0.0723500000000000    0.4623500000000001 H
   0.3166500000000000    0.0723500000000000    0.9623500000000001 H
   0.3166500000000000    0.5723500000000001    0.4623500000000001 H
   0.3166500000000000    0.5723500000000001    0.9623500000000001 H
   0.8166500000000001    0.0723500000000000    0.4623500000000001 H
   0.8166500000000001    0.0723500000000000    0.9623500000000001 H
   0.8166500000000001    0.5723500000000001    0.4623500000000001 H
   0.8166500000000001    0.5723500000000001    0.9623500000000003 H
   0.4333500000000001    0.3223500000000001    0.2876500000000000 H
   0.4333500000000001    0.3223500000000001    0.7876500000000001 H
   0.4333500000000001    0.8223500000000000    0.2876500000000000 H
   0.4333500000000001    0.8223500000000000    0.7876500000000001 H
   0.9333500000000001    0.3223500000000001    0.2876500000000001 H
   0.9333500000000001    0.3223500000000001    0.7876500000000001 H
   0.9333500000000001    0.8223500000000000    0.2876500000000001 H
   0.9333500000000001    0.8223500000000000    0.7876500000000001 H
   0.0666500000000000    0.3223500000000001    0.4623500000000001 H
   0.0666500000000000    0.3223500000000001    0.9623500000000001 H
   0.0666500000000000    0.8223500000000000    0.4623500000000001 H
   0.0666500000000000    0.8223500000000000    0.9623500000000001 H
   0.5666500000000001    0.3223500000000001    0.4623500000000001 H
   0.5666500000000001    0.3223500000000001    0.9623500000000000 H
   0.5666500000000001    0.8223500000000000    0.4623500000000001 H
   0.5666500000000001    0.8223500000000000    0.9623500000000001 H
   0.3090500000000000    0.3953500000000000    0.1662000000000000 H
   0.3090500000000000    0.3953500000000000    0.6662000000000001 H
   0.3090500000000000    0.8953500000000001    0.1662000000000000 H
   0.3090500000000000    0.8953500000000001    0.6662000000000001 H
   0.8090500000000000    0.3953500000000000    0.1662000000000000 H
   0.8090500000000000    0.3953500000000000    0.6662000000000000 H
   0.8090500000000000    0.8953500000000001    0.1662000000000001 H
   0.8090500000000000    0.8953500000000001    0.6662000000000000 H
   0.1909500000000000    0.3953500000000000    0.0838000000000001 H
   0.1909500000000000    0.3953500000000000    0.5838000000000001 H
   0.1909500000000000    0.8953500000000001    0.0838000000000000 H
   0.1909500000000000    0.8953500000000001    0.5838000000000001 H
   0.6909500000000001    0.3953500000000000    0.0838000000000001 H
   0.6909500000000001    0.3953500000000000    0.5838000000000001 H
   0.6909500000000001    0.8953500000000001    0.0838000000000001 H
   0.6909500000000001    0.8953500000000001    0.5838000000000001 H
   0.0590500000000001    0.1453500000000000    0.1662000000000000 H
   0.0590500000000001    0.1453500000000000    0.6662000000000000 H
   0.0590500000000001    0.6453500000000000    0.1662000000000000 H
   0.0590500000000001    0.6453500000000000    0.6662000000000000 H
   0.5590500000000000    0.1453500000000000    0.1662000000000000 H
   0.5590500000000000    0.1453500000000000    0.6662000000000000 H
   0.5590500000000000    0.6453500000000000    0.1662000000000000 H
   0.5590500000000000    0.6453500000000000    0.6662000000000000 H
   0.4409500000000001    0.1453500000000000    0.0838000000000001 H
   0.4409500000000001    0.1453500000000000    0.5838000000000001 H
   0.4409500000000001    0.6453500000000000    0.0838000000000001 H
   0.4409500000000001    0.6453500000000000    0.5838000000000001 H
   0.9409500000000002    0.1453500000000000    0.0838000000000001 H
   0.9409500000000002    0.1453500000000000    0.5838000000000001 H
   0.9409500000000002    0.6453500000000000    0.0838000000000002 H
   0.9409500000000002    0.6453500000000000    0.5838000000000002 H
   0.1909500000000000    0.1046500000000000    0.3338000000000000 H
   0.1909500000000000    0.1046500000000000    0.8338000000000000 H
   0.1909500000000000    0.6046500000000001    0.3338000000000000 H
   0.1909500000000000    0.6046500000000001    0.8338000000000000 H
   0.6909500000000001    0.1046500000000000    0.3338000000000000 H
   0.6909500000000001    0.1046500000000000    0.8338000000000001 H
   0.6909500000000001    0.6046500000000001    0.3338000000000001 H
   0.6909500000000001    0.6046500000000001    0.8338000000000001 H
   0.3090500000000000    0.1046500000000000    0.4162000000000001 H
   0.3090500000000000    0.1046500000000000    0.9162000000000001 H
   0.3090500000000000    0.6046500000000001    0.4162000000000001 H
   0.3090500000000000    0.6046500000000001    0.9162000000000001 H
   0.8090500000000000    0.1046500000000000    0.4162000000000001 H
   0.8090500000000000    0.1046500000000000    0.9162000000000001 H
   0.8090500000000000    0.6046500000000001    0.4162000000000001 H
   0.8090500000000000    0.6046500000000001    0.9162000000000001 H
   0.4409500000000001    0.3546500000000001    0.3338000000000000 H
   0.4409500000000001    0.3546500000000001    0.8338000000000001 H
   0.4409500000000001    0.8546500000000000    0.3338000000000000 H
   0.4409500000000001    0.8546500000000000    0.8338000000000001 H
   0.9409500000000002    0.3546500000000001    0.3338000000000001 H
   0.9409500000000002    0.3546500000000001    0.8338000000000001 H
   0.9409500000000002    0.8546500000000000    0.3338000000000001 H
   0.9409500000000002    0.8546500000000000    0.8338000000000001 H
   0.0590500000000001    0.3546500000000001    0.4162000000000000 H
   0.0590500000000001    0.3546500000000001    0.9162000000000000 H
   0.0590500000000001    0.8546500000000000    0.4162000000000000 H
   0.0590500000000001    0.8546500000000000    0.9162000000000000 H
   0.5590500000000000    0.3546500000000001    0.4162000000000000 H
   0.5590500000000000    0.3546500000000001    0.9162000000000000 H
   0.5590500000000000    0.8546500000000000    0.4162000000000001 H
   0.5590500000000000    0.8546500000000000    0.9162000000000000 H
   0.1993500000000000    0.3197000000000000    0.1584500000000000 H
   0.1993500000000000    0.3197000000000000    0.6584500000000001 H
   0.1993500000000000    0.8197000000000000    0.1584500000000000 H
   0.1993500000000000    0.8197000000000000    0.6584500000000000 H
   0.6993500000000000    0.3197000000000000    0.1584500000000001 H
   0.6993500000000000    0.3197000000000000    0.6584500000000001 H
   0.6993500000000000    0.8197000000000000    0.1584500000000001 H
   0.6993500000000000    0.8197000000000000    0.6584500000000001 H
   0.3006500000000000    0.3197000000000000    0.0915500000000000 H
   0.3006500000000000    0.3197000000000000    0.5915500000000000 H
   0.3006500000000000    0.8197000000000000    0.0915500000000000 H
   0.3006500000000000    0.8197000000000000    0.5915500000000000 H
   0.8006500000000001    0.3197000000000000    0.0915500000000000 H
   0.8006500000000001    0.3197000000000000    0.5915500000000000 H
   0.8006500000000001    0.8197000000000000    0.0915500000000001 H
   0.8006500000000001    0.8197000000000000    0.5915500000000001 H
   0.4493500000000001    0.0697000000000000    0.1584500000000000 H
   0.4493500000000001    0.0697000000000000    0.6584500000000000 H
   0.4493500000000001    0.5697000000000000    0.1584500000000001 H
   0.4493500000000001    0.5697000000000000    0.6584500000000000 H
   0.9493500000000000    0.0697000000000000    0.1584500000000000 H
   0.9493500000000000    0.0697000000000000    0.6584500000000000 H
   0.9493500000000000    0.5697000000000000    0.1584500000000001 H
   0.9493500000000000    0.5697000000000000    0.6584500000000001 H
   0.0506500000000000    0.0697000000000000    0.0915500000000000 H
   0.0506500000000000    0.0697000000000000    0.5915500000000000 H
   0.0506500000000000    0.5697000000000000    0.0915500000000000 H
   0.0506500000000000    0.5697000000000000    0.5915500000000000 H
   0.5506500000000000    0.0697000000000000    0.0915500000000000 H
   0.5506500000000000    0.0697000000000000    0.5915500000000000 H
   0.5506500000000000    0.5697000000000000    0.0915500000000000 H
   0.5506500000000000    0.5697000000000000    0.5915500000000000 H
   0.3006500000000000    0.1803000000000000    0.3415500000000001 H
   0.3006500000000000    0.1803000000000000    0.8415500000000001 H
   0.3006500000000000    0.6803000000000000    0.3415500000000001 H
   0.3006500000000000    0.6803000000000000    0.8415500000000001 H
   0.8006500000000001    0.1803000000000000    0.3415500000000001 H
   0.8006500000000001    0.1803000000000000    0.8415500000000001 H
   0.8006500000000001    0.6803000000000000    0.3415500000000001 H
   0.8006500000000001    0.6803000000000000    0.8415500000000001 H
   0.1993500000000000    0.1803000000000000    0.4084500000000000 H
   0.1993500000000000    0.1803000000000000    0.9084500000000001 H
   0.1993500000000000    0.6803000000000000    0.4084500000000000 H
   0.1993500000000000    0.6803000000000000    0.9084500000000001 H
   0.6993500000000000    0.1803000000000000    0.4084500000000000 H
   0.6993500000000000    0.1803000000000000    0.9084500000000000 H
   0.6993500000000000    0.6803000000000000    0.4084500000000000 H
   0.6993500000000000    0.6803000000000000    0.9084500000000001 H
   0.0506500000000000    0.4303000000000001    0.3415500000000000 H
   0.0506500000000000    0.4303000000000001    0.8415500000000000 H
   0.0506500000000000    0.9303000000000001    0.3415500000000000 H
   0.0506500000000000    0.9303000000000001    0.8415500000000000 H
   0.5506500000000000    0.4303000000000001    0.3415500000000001 H