H192 C176 N32 O16
1.0
  14.9466859165839328    0.0000000000000000   -7.4769135584806277
  -0.0000000000000005    7.3864000000000001    0.0000000000000005
   0.0000000000000000    0.0000000000000000   35.1809999999999974
H C N O
192 176 32 16
direct
   0.2990000000000000    0.1731000000000000    0.0765000000000000 H
   0.2990000000000000    0.1731000000000000    0.5765000000000001 H
   0.7010000000000002    0.1731000000000000    0.1735000000000000 H
   0.7010000000000002    0.1731000000000000    0.6735000000000000 H
   0.7990000000000000    0.6731000000000000    0.0765000000000000 H
   0.7990000000000000    0.6731000000000000    0.5765000000000000 H
   0.2010000000000000    0.6731000000000000    0.1735000000000000 H
   0.2010000000000000    0.6731000000000000    0.6735000000000000 H
   0.7010000000000002    0.8269000000000001    0.4235000000000000 H
   0.7010000000000002    0.8269000000000001    0.9235000000000001 H
   0.2990000000000000    0.8269000000000001    0.3265000000000001 H
   0.2990000000000000    0.8269000000000001    0.8265000000000001 H
   0.2010000000000000    0.3269000000000000    0.4235000000000000 H
   0.2010000000000000    0.3269000000000000    0.9235000000000000 H
   0.7990000000000000    0.3269000000000000    0.3265000000000000 H
   0.7990000000000000    0.3269000000000000    0.8265000000000000 H
   0.4206000000000000    0.3599000000000000    0.1165500000000000 H
   0.4206000000000000    0.3599000000000000    0.6165500000000000 H
   0.5794000000000001    0.3599000000000000    0.1334500000000000 H
   0.5794000000000001    0.3599000000000000    0.6334500000000000 H
   0.9206000000000001    0.8599000000000001    0.1165500000000000 H
   0.9206000000000001    0.8599000000000001    0.6165500000000000 H
   0.0794000000000000    0.8599000000000001    0.1334500000000000 H
   0.0794000000000000    0.8599000000000001    0.6334500000000001 H
   0.5794000000000001    0.6401000000000000    0.3834500000000001 H
   0.5794000000000001    0.6401000000000000    0.8834500000000001 H
   0.4206000000000000    0.6401000000000000    0.3665500000000000 H
   0.4206000000000000    0.6401000000000000    0.8665500000000000 H
   0.0794000000000000    0.1401000000000000    0.3834500000000000 H
   0.0794000000000000    0.1401000000000000    0.8834500000000001 H
   0.9206000000000001    0.1401000000000000    0.3665500000000000 H
   0.9206000000000001    0.1401000000000000    0.8665500000000000 H
   0.7249000000000001    0.4343000000000000    0.2429000000000000 H
   0.7249000000000001    0.4343000000000000    0.7429000000000000 H
   0.2751000000000001    0.4343000000000000    0.0071000000000000 H
   0.2751000000000001    0.4343000000000000    0.5071000000000000 H
   0.2248999999999999    0.9343000000000001    0.2429000000000000 H
   0.2248999999999999    0.9343000000000001    0.7429000000000000 H
   0.7751000000000001    0.9343000000000001    0.0071000000000000 H
   0.7751000000000001    0.9343000000000001    0.5071000000000000 H
   0.2751000000000001    0.5657000000000001    0.2571000000000000 H
   0.2751000000000001    0.5657000000000001    0.7571000000000000 H
   0.7249000000000001    0.5657000000000001    0.4929000000000000 H
   0.7249000000000001    0.5657000000000001    0.9929000000000000 H
   0.7751000000000001    0.0657000000000000    0.2571000000000001 H
   0.7751000000000001    0.0657000000000000    0.7571000000000001 H
   0.2248999999999999    0.0657000000000000    0.4929000000000001 H
   0.2248999999999999    0.0657000000000000    0.9929000000000001 H
   0.7124000000000000    0.7564000000000000    0.2066000000000000 H
   0.7124000000000000    0.7564000000000000    0.7066000000000000 H
   0.2876000000000000    0.7564000000000000    0.0434000000000000 H
   0.2876000000000000    0.7564000000000000    0.5434000000000000 H
   0.2124000000000002    0.2564000000000000    0.2066000000000000 H
   0.2124000000000002    0.2564000000000000    0.7066000000000001 H
   0.7876000000000000    0.2564000000000000    0.0434000000000000 H
   0.7876000000000000    0.2564000000000000    0.5434000000000000 H
   0.2876000000000000    0.2436000000000001    0.2934000000000000 H
   0.2876000000000000    0.2436000000000001    0.7934000000000000 H
   0.7124000000000000    0.2436000000000001    0.4566000000000000 H
   0.7124000000000000    0.2436000000000001    0.9566000000000000 H
   0.7876000000000000    0.7436000000000001    0.2934000000000000 H
   0.7876000000000000    0.7436000000000001    0.7934000000000001 H
   0.2124000000000002    0.7436000000000001    0.4566000000000000 H
   0.2124000000000002    0.7436000000000001    0.9566000000000000 H
   0.6333000000000001    0.8552999999999999    0.2123500000000000 H
   0.6333000000000001    0.8552999999999999    0.7123500000000001 H
   0.3667000000000000    0.8552999999999999    0.0376500000000000 H
   0.3667000000000000    0.8552999999999999    0.5376500000000001 H
   0.1333000000000000    0.3553000000000000    0.2123500000000000 H
   0.1333000000000000    0.3553000000000000    0.7123500000000000 H
   0.8667000000000001    0.3553000000000000    0.0376500000000000 H
   0.8667000000000001    0.3553000000000000    0.5376500000000001 H
   0.3667000000000000    0.1447000000000001    0.2876500000000000 H
   0.3667000000000000    0.1447000000000001    0.7876500000000000 H
   0.6333000000000001    0.1447000000000001    0.4623500000000001 H
   0.6333000000000001    0.1447000000000001    0.9623500000000001 H
   0.8667000000000001    0.6447000000000002    0.2876500000000000 H
   0.8667000000000001    0.6447000000000002    0.7876500000000001 H
   0.1333000000000000    0.6447000000000002    0.4623500000000001 H
   0.1333000000000000    0.6447000000000002    0.9623500000000001 H
   0.6181000000000001    0.7907000000000001    0.1662000000000000 H
   0.6181000000000001    0.7907000000000001    0.6662000000000001 H
   0.3819000000000001    0.7907000000000001    0.0838000000000001 H
   0.3819000000000001    0.7907000000000001    0.5838000000000001 H
   0.1181000000000001    0.2907000000000000    0.1662000000000000 H
   0.1181000000000001    0.2907000000000000    0.6662000000000000 H
   0.8819000000000001    0.2907000000000000    0.0838000000000001 H
   0.8819000000000001    0.2907000000000000    0.5838000000000001 H
   0.3819000000000001    0.2093000000000001    0.3338000000000000 H
   0.3819000000000001    0.2093000000000001    0.8338000000000000 H
   0.6181000000000001    0.2093000000000001    0.4162000000000001 H
   0.6181000000000001    0.2093000000000001    0.9162000000000001 H
   0.8819000000000001    0.7093000000000002    0.3338000000000000 H
   0.8819000000000001    0.7093000000000002    0.8338000000000001 H
   0.1181000000000001    0.7093000000000002    0.4162000000000000 H
   0.1181000000000001    0.7093000000000002    0.9162000000000000 H
   0.3987000000000001    0.6394000000000000    0.1584500000000000 H
   0.3987000000000001    0.6394000000000000    0.6584500000000001 H
   0.6013000000000001    0.6394000000000000    0.0915500000000000 H
   0.6013000000000001    0.6394000000000000    0.5915500000000000 H
   0.8987000000000002    0.1394000000000000    0.1584500000000000 H
   0.8987000000000002    0.1394000000000000    0.6584500000000000 H
   0.1013000000000000    0.1394000000000000    0.0915500000000000 H
   0.1013000000000000    0.1394000000000000    0.5915500000000000 H
   0.6013000000000001    0.3606000000000001    0.3415500000000001 H
   0.6013000000000001    0.3606000000000001    0.8415500000000001 H
   0.3987000000000001    0.3606000000000001    0.4084500000000000 H
   0.3987000000000001    0.3606000000000001    0.9084500000000001 H
   0.1013000000000000    0.8606000000000001    0.3415500000000000 H
   0.1013000000000000    0.8606000000000001    0.8415500000000000 H
   0.8987000000000002    0.8606000000000001    0.4084500000000000 H
   0.8987000000000002    0.8606000000000001    0.9084500000000000 H
   0.4727000000000001    0.7949000000000002    0.1702000000000000 H
   0.4727000000000001    0.7949000000000002    0.6702000000000000 H
   0.5273000000000000    0.7949000000000002    0.0798000000000001 H
   0.5273000000000000    0.7949000000000002    0.5798000000000001 H
   0.9727000000000000    0.2949000000000002    0.1702000000000000 H
   0.9727000000000000    0.2949000000000002    0.6702000000000000 H
   0.0273000000000000    0.2949000000000002    0.0798000000000000 H
   0.0273000000000000    0.2949000000000002    0.5798000000000000 H
   0.5273000000000000    0.2051000000000000    0.3298000000000000 H
   0.5273000000000000    0.2051000000000000    0.8298000000000001 H
   0.4727000000000001    0.2051000000000000    0.4202000000000001 H
   0.4727000000000001    0.2051000000000000    0.9202000000000000 H
   0.0273000000000000    0.7050999999999999    0.3298000000000000 H
   0.0273000000000000    0.7050999999999999    0.8298000000000001 H
   0.9727000000000000    0.7050999999999999    0.4202000000000001 H
   0.9727000000000000    0.7050999999999999    0.9202000000000000 H
   0.4575000000000000    0.6965000000000000    0.2070000000000000 H
   0.4575000000000000    0.6965000000000000    0.7070000000000000 H
   0.5425000000000000    0.6965000000000000    0.0430000000000000 H
   0.5425000000000000    0.6965000000000000    0.5430000000000000 H
   0.9575000000000001    0.1964999999999999    0.2070000000000000 H
   0.9575000000000001    0.1964999999999999    0.7070000000000001 H
   0.0425000000000000    0.1964999999999999    0.0430000000000000 H
   0.0425000000000000    0.1964999999999999    0.5430000000000000 H
   0.5425000000000000    0.3035000000000000    0.2930000000000001 H
   0.5425000000000000    0.3035000000000000    0.7930000000000000 H
   0.4575000000000000    0.3035000000000000    0.4570000000000000 H
   0.4575000000000000    0.3035000000000000    0.9570000000000000 H
   0.0425000000000000    0.8035000000000001    0.2930000000000000 H
   0.0425000000000000    0.8035000000000001    0.7930000000000000 H
   0.9575000000000001    0.8035000000000001    0.4570000000000000 H
   0.9575000000000001    0.8035000000000001    0.9570000000000001 H
   0.4313000000000001    0.1459000000000000    0.2249000000000000 H
   0.4313000000000001    0.1459000000000000    0.7249000000000001 H
   0.5687000000000001    0.1459000000000000    0.0251000000000000 H
   0.5687000000000001    0.1459000000000000    0.5251000000000001 H
   0.9313000000000001    0.6459000000000000    0.2249000000000000 H
   0.9313000000000001    0.6459000000000000    0.7249000000000001 H
   0.0687000000000000    0.6459000000000000    0.0251000000000000 H
   0.0687000000000000    0.6459000000000000    0.5251000000000000 H
   0.5687000000000001    0.8541000000000001    0.2751000000000000 H
   0.5687000000000001    0.8541000000000001    0.7751000000000001 H
   0.4313000000000001    0.8541000000000001    0.4749000000000000 H
   0.4313000000000001    0.8541000000000001    0.9749000000000000 H
   0.0687000000000000    0.3541000000000000    0.2751000000000001 H
   0.0687000000000000    0.3541000000000000    0.7751000000000001 H
   0.9313000000000001    0.3541000000000000    0.4749000000000000 H
   0.9313000000000001    0.3541000000000000    0.9749000000000001 H
   0.3093000000000001    0.9602000000000001    0.1844000000000000 H
   0.3093000000000001    0.9602000000000001    0.6844000000000000 H
   0.6907000000000001    0.9602000000000001    0.0656000000000000 H
   0.6907000000000001    0.9602000000000001    0.5656000000000001 H
   0.8093000000000000    0.4602000000000001    0.1844000000000000 H
   0.8093000000000000    0.4602000000000001    0.6844000000000001 H
   0.1907000000000000    0.4602000000000001    0.0656000000000000 H
   0.1907000000000000    0.4602000000000001    0.5656000000000000 H
   0.6907000000000001    0.0398000000000000    0.3156000000000000 H
   0.6907000000000001    0.0398000000000000    0.8156000000000001 H
   0.3093000000000001    0.0398000000000000    0.4344000000000001 H
   0.3093000000000001    0.0398000000000000    0.9344000000000001 H
   0.1907000000000000    0.5398000000000002    0.3156000000000000 H
   0.1907000000000000    0.5398000000000002    0.8156000000000000 H
   0.8093000000000000    0.5398000000000002    0.4344000000000001 H
   0.8093000000000000    0.5398000000000002    0.9344000000000001 H
   0.2443000000000000    0.9706000000000001    0.1103000000000000 H
   0.2443000000000000    0.9706000000000001    0.6103000000000001 H
   0.7557000000000000    0.9706000000000001    0.1397000000000000 H
   0.7557000000000000    0.9706000000000001    0.6396999999999999 H
   0.7443000000000000    0.4706000000000001    0.1103000000000000 H
   0.7443000000000000    0.4706000000000001    0.6103000000000001 H
   0.2557000000000000    0.4706000000000001    0.1397000000000000 H
   0.2557000000000000    0.4706000000000001    0.6397000000000000 H
   0.7557000000000000    0.0294000000000000    0.3897000000000000 H
   0.7557000000000000    0.0294000000000000    0.8896999999999999 H
   0.2443000000000000    0.0294000000000000    0.3603000000000000 H
   0.2443000000000000    0.0294000000000000    0.8603000000000001 H
   0.2557000000000000    0.5294000000000000    0.3897000000000000 H
   0.2557000000000000    0.5294000000000000    0.8897000000000000 H
   0.7443000000000000    0.5294000000000000    0.3603000000000000 H
   0.7443000000000000    0.5294000000000000    0.8603000000000001 H
   0.5996800000000001    0.3005500000000000    0.2241950000000000 C
   0.5996800000000001    0.3005500000000000    0.7241950000000000 C
   0.4003200000000000    0.3005500000000000    0.0258050000000000 C
   0.4003200000000000    0.3005500000000000    0.5258050000000001 C
   0.0996800000000000    0.8005500000000001    0.2241950000000000 C
   0.0996800000000000    0.8005500000000001    0.7241950000000000 C
   0.9003200000000001    0.8005500000000001    0.0258050000000001 C
   0.9003200000000001    0.8005500000000001    0.5258050000000001 C
   0.4003200000000000    0.6994500000000000    0.2758050000000000 C
   0.4003200000000000    0.6994500000000000    0.7758050000000000 C
   0.5996800000000001    0.6994500000000000    0.4741950000000001 C
   0.5996800000000001    0.6994500000000000    0.9741950000000001 C
   0.9003200000000001    0.1994500000000000    0.2758050000000000 C
   0.9003200000000001    0.1994500000000000    0.7758050000000001 C
   0.0996800000000000    0.1994500000000000    0.4741950000000000 C
   0.0996800000000000    0.1994500000000000    0.9741949999999999 C
   0.3261400000000000    0.1670600000000000    0.1066350000000000 C
   0.3261400000000000    0.1670600000000000    0.6066350000000000 C
   0.6738600000000001    0.1670600000000000    0.1433650000000000 C
   0.6738600000000001    0.1670600000000000    0.6433650000000001 C
   0.8261400000000001    0.6670600000000001    0.1066350000000000 C
   0.8261400000000001    0.6670600000000001    0.6066350000000000 C
   0.1738600000000000    0.6670600000000001    0.1433650000000000 C
   0.1738600000000000    0.6670600000000001    0.6433650000000001 C
   0.6738600000000001    0.8329400000000001    0.3933650000000000 C
   0.6738600000000001    0.8329400000000001    0.8933650000000001 C
   0.3261400000000000    0.8329400000000001    0.3566350000000000 C
   0.3261400000000000    0.8329400000000001    0.8566350000000001 C
   0.1738600000000000    0.3329400000000000    0.3933650000000000 C
   0.1738600000000000    0.3329400000000000    0.8933650000000000 C
   0.8261400000000001    0.3329400000000000    0.3566350000000000 C
   0.8261400000000001    0.3329400000000000    0.8566350000000000 C
   0.3983800000000001    0.2779100000000000    0.1303400000000000 C
   0.3983800000000001    0.2779100000000000    0.6303400000000000 C
   0.6016200000000000    0.2779100000000000    0.1196600000000000 C
   0.6016200000000000    0.2779100000000000    0.6196600000000000 C
   0.8983800000000001    0.7779100000000000    0.1303400000000000 C
   0.8983800000000001    0.7779100000000000    0.6303400000000000 C
   0.1016200000000000    0.7779100000000000    0.1196600000000000 C
   0.1016200000000000    0.7779100000000000    0.6196600000000000 C
   0.6016200000000000    0.7220900000000001    0.3696600000000000 C
   0.6016200000000000    0.7220900000000001    0.8696600000000000 C
   0.3983800000000001    0.7220900000000001    0.3803400000000001 C
   0.3983800000000001    0.7220900000000001    0.8803400000000000 C
   0.1016200000000000    0.2220900000000000    0.3696600000000000 C
   0.1016200000000000    0.2220900000000000    0.8696600000000001 C
   0.8983800000000001    0.2220900000000000    0.3803400000000001 C
   0.8983800000000001    0.2220900000000000    0.8803400000000000 C
   0.6616700000000000    0.4406600000000001    0.2271000000000000 C
   0.6616700000000000    0.4406600000000001    0.7271000000000001 C
   0.3383300000000000    0.4406600000000001    0.0229000000000000 C
   0.3383300000000000    0.4406600000000001    0.5229000000000000 C
   0.1616700000000000    0.9406600000000002    0.2271000000000000 C
   0.1616700000000000    0.9406600000000002    0.7271000000000001 C
   0.8383300000000001    0.9406600000000002    0.0229000000000000 C
   0.8383300000000001    0.9406600000000002    0.5229000000000000 C
   0.3383300000000000    0.5593399999999999    0.2729000000000001 C
   0.3383300000000000    0.5593399999999999    0.7729000000000001 C
   0.6616700000000000    0.5593399999999999    0.4771000000000000 C
   0.6616700000000000    0.5593399999999999    0.9771000000000000 C
   0.8383300000000001    0.0593400000000000    0.2729000000000001 C
   0.8383300000000001    0.0593400000000000    0.7729000000000000 C
   0.1616700000000000    0.0593400000000000    0.4771000000000000 C
   0.1616700000000000    0.0593400000000000    0.9771000000000000 C
   0.6148800000000000    0.5830800000000000    0.2035550000000000 C
   0.6148800000000000    0.5830800000000000    0.7035550000000000 C
   0.3851200000000001    0.5830800000000000    0.0464450000000000 C
   0.3851200000000001    0.5830800000000000    0.5464450000000000 C
   0.1148799999999999    0.0830800000000001    0.2035550000000000 C
   0.1148799999999999    0.0830800000000001    0.7035550000000000 C
   0.8851200000000000    0.0830800000000001    0.0464450000000000 C
   0.8851200000000000    0.0830800000000001    0.5464450000000001 C
   0.3851200000000001    0.4169200000000000    0.2964450000000000 C
   0.3851200000000001    0.4169200000000000    0.7964450000000000 C
   0.6148800000000000    0.4169200000000000    0.4535550000000000 C
   0.6148800000000000    0.4169200000000000    0.9535550000000000 C
   0.8851200000000000    0.9169200000000001    0.2964450000000000 C
   0.8851200000000000    0.9169200000000001    0.7964450000000001 C
   0.1148799999999999    0.9169200000000001    0.4535550000000001 C
   0.1148799999999999    0.9169200000000001    0.9535550000000002 C
   0.6474500000000000    0.7616100000000001    0.1965750000000000 C
   0.6474500000000000    0.7616100000000001    0.6965750000000001 C
   0.3525500000000001    0.7616100000000001    0.0534250000000000 C
   0.3525500000000001    0.7616100000000001    0.5534250000000001 C
   0.1474500000000001    0.2616100000000002    0.1965750000000000 C
   0.1474500000000001    0.2616100000000002    0.6965750000000001 C
   0.8525500000000000    0.2616100000000002    0.0534250000000000 C
   0.8525500000000000    0.2616100000000002    0.5534250000000001 C
   0.3525500000000001    0.2383900000000000    0.3034250000000001 C
   0.3525500000000001    0.2383900000000000    0.8034250000000002 C
   0.6474500000000000    0.2383900000000000    0.4465750000000001 C
   0.6474500000000000    0.2383900000000000    0.9465750000000001 C
   0.8525500000000000    0.7383900000000001    0.3034250000000001 C
   0.8525500000000000    0.7383900000000001    0.8034250000000001 C
   0.1474500000000001    0.7383900000000001    0.4465750000000000 C
   0.1474500000000001    0.7383900000000001    0.9465750000000001 C
   0.4578900000000001    0.6798600000000000    0.1794500000000000 C
   0.4578900000000001    0.6798600000000000    0.6794500000000000 C
   0.5421100000000000    0.6798600000000000    0.0705500000000000 C
   0.5421100000000000    0.6798600000000000    0.5705500000000000 C
   0.9578900000000000    0.1798600000000002    0.1794500000000000 C
   0.9578900000000000    0.1798600000000002    0.6794500000000001 C
   0.0421100000000000    0.1798600000000002    0.0705500000000000 C
   0.0421100000000000    0.1798600000000002    0.5705500000000001 C
   0.5421100000000000    0.3201400000000000    0.3205500000000001 C
   0.5421100000000000    0.3201400000000000    0.8205500000000000 C
   0.4578900000000001    0.3201400000000000    0.4294500000000001 C
   0.4578900000000001    0.3201400000000000    0.9294500000000001 C
   0.0421100000000000    0.8201400000000001    0.3205500000000000 C
   0.0421100000000000    0.8201400000000001    0.8205500000000001 C
   0.9578900000000000    0.8201400000000001    0.4294500000000001 C
   0.9578900000000000    0.8201400000000001    0.9294500000000001 C
   0.4379900000000000    0.2682900000000000    0.1744050000000000 C
   0.4379900000000000    0.2682900000000000    0.6744050000000000 C
   0.5620100000000000    0.2682900000000000    0.0755950000000000 C
   0.5620100000000000    0.2682900000000000    0.5755950000000000 C
   0.9379900000000000    0.7682900000000000    0.1744050000000001 C
   0.9379900000000000    0.7682900000000000    0.6744050000000001 C
   0.0620100000000000    0.7682900000000000    0.0755950000000000 C
   0.0620100000000000    0.7682900000000000    0.5755950000000001 C
   0.5620100000000000    0.7317100000000002    0.3255950000000000 C
   0.5620100000000000    0.7317100000000002    0.8255950000000000 C
   0.4379900000000000    0.7317100000000002    0.4244050000000001 C
   0.4379900000000000    0.7317100000000002    0.9244050000000000 C
   0.0620100000000000    0.2317100000000000    0.3255950000000000 C
   0.0620100000000000    0.2317100000000000    0.8255950000000001 C
   0.9379900000000000    0.2317100000000000    0.4244050000000001 C
   0.9379900000000000    0.2317100000000000    0.9244050000000001 C
   0.4047000000000001    0.1508100000000000    0.1947550000000000 C
   0.4047000000000001    0.1508100000000000    0.6947550000000000 C
   0.5952999999999999    0.1508100000000000    0.0552450000000000 C
   0.5952999999999999    0.1508100000000000    0.5552450000000000 C
   0.9047000000000001    0.6508100000000001    0.1947550000000000 C
   0.9047000000000001    0.6508100000000001    0.6947550000000001 C
   0.0953000000000000    0.6508100000000001    0.0552450000000000 C
   0.0953000000000000    0.6508100000000001    0.5552450000000001 C
   0.5952999999999999    0.8491900000000000    0.3052450000000000 C
   0.5952999999999999    0.8491900000000000    0.8052450000000000 C
   0.4047000000000001    0.8491900000000000    0.4447550000000001 C
   0.4047000000000001    0.8491900000000000    0.9447550000000001 C
   0.0953000000000000    0.3491900000000001    0.3052450000000000 C
   0.0953000000000000    0.3491900000000001    0.8052450000000000 C
   0.9047000000000001    0.3491900000000001    0.4447550000000000 C
   0.9047000000000001    0.3491900000000001    0.9447550000000001 C
   0.3323200000000000    0.0408100000000000    0.1706300000000000 C
   0.3323200000000000    0.0408100000000000    0.6706300000000001 C
   0.6676800000000002    0.0408100000000000    0.0793700000000000 C
   0.6676800000000002    0.0408100000000000    0.5793700000000001 C
   0.8323200000000001    0.5408100000000001    0.1706300000000000 C
   0.8323200000000001    0.5408100000000001    0.6706300000000001 C
   0.1676800000000000    0.5408100000000001    0.0793700000000000 C
   0.1676800000000000    0.5408100000000001    0.5793700000000001 C
   0.6676800000000002    0.9591900000000001    0.3293700000000001 C
   0.6676800000000002    0.9591900000000001    0.8293700000000001 C
   0.3323200000000001    0.9591900000000001    0.4206300000000001 C
   0.3323200000000001    0.9591900000000001    0.9206300000000001 C
   0.1676800000000001    0.4591900000000000    0.3293700000000001 C
   0.1676800000000001    0.4591900000000000    0.8293700000000001 C
   0.8323200000000001    0.4591900000000000    0.4206300000000001 C
   0.8323200000000001    0.4591900000000000    0.9206300000000001 C
   0.2933000000000001    0.0475000000000000    0.1266400000000000 C
   0.2933000000000001    0.0475000000000000    0.6266400000000000 C
   0.7067000000000001    0.0475000000000000    0.1233600000000000 C
   0.7067000000000001    0.0475000000000000    0.6233600000000000 C
   0.7933000000000001    0.5475000000000001    0.1266400000000000 C
   0.7933000000000001    0.5475000000000001    0.6266400000000001 C
   0.2067000000000000    0.5475000000000001    0.1233600000000000 C
   0.2067000000000000    0.5475000000000001    0.6233600000000000 C
   0.7067000000000001    0.9525000000000001    0.3733600000000001 C
   0.7067000000000001    0.9525000000000001    0.8733600000000000 C
   0.2933000000000001    0.9525000000000001    0.3766400000000000 C
   0.2933000000000001    0.9525000000000001    0.8766400000000000 C
   0.2067000000000000    0.4525000000000001    0.3733600000000000 C
   0.2067000000000000    0.4525000000000001    0.8733600000000000 C
   0.7933000000000001    0.4525000000000001    0.3766400000000000 C
   0.7933000000000001    0.4525000000000001    0.8766400000000001 C
   0.5146800000000000    0.3750400000000000    0.1995200000000000 N
   0.5146800000000000    0.3750400000000000    0.6995200000000000 N
   0.4853200000000000    0.3750400000000000    0.0504800000000000 N
   0.4853200000000000    0.3750400000000000    0.5504800000000001 N
   0.0146800000000000    0.8750400000000002    0.1995200000000000 N
   0.0146800000000000    0.8750400000000002    0.6995200000000000 N
   0.9853200000000001    0.8750400000000002    0.0504800000000000 N
   0.9853200000000001    0.8750400000000002    0.5504800000000001 N
   0.4853200000000000    0.6249600000000000    0.3004800000000000 N
   0.4853200000000000    0.6249600000000000    0.8004800000000000 N
   0.5146800000000000    0.6249600000000000    0.4495200000000001 N
   0.5146800000000000    0.6249600000000000    0.9495200000000001 N
   0.9853200000000001    0.1249600000000000    0.3004800000000000 N
   0.9853200000000001    0.1249600000000000    0.8004800000000001 N
   0.0146800000000000    0.1249600000000000    0.4495200000000000 N
   0.0146800000000000    0.1249600000000000    0.9495200000000000 N
   0.5247200000000000    0.5438100000000000    0.1834950000000000 N
   0.5247200000000000    0.5438100000000000    0.6834950000000000 N
   0.4752800000000001    0.5438100000000000    0.0665050000000000 N
   0.4752800000000001    0.5438100000000000    0.5665050000000000 N
   0.0247199999999999    0.0438100000000001    0.1834950000000000 N
   0.0247199999999999    0.0438100000000001    0.6834950000000001 N
   0.9752800000000001    0.0438100000000001    0.0665050000000001 N
   0.9752800000000001    0.0438100000000001    0.5665050000000001 N
   0.4752800000000001    0.4561900000000000    0.3165050000000000 N
   0.4752800000000001    0.4561900000000000    0.8165050000000000 N
   0.5247200000000000    0.4561900000000000    0.4334950000000000 N
   0.5247200000000000    0.4561900000000000    0.9334950000000001 N
   0.9752800000000001    0.9561900000000001    0.3165050000000001 N
   0.9752800000000001    0.9561900000000001    0.8165050000000001 N
   0.0247199999999999    0.9561900000000001    0.4334950000000000 N
   0.0247199999999999    0.9561900000000001    0.9334950000000000 N
   0.6113900000000001    0.1443400000000000    0.2379050000000000 O
   0.6113900000000001    0.1443400000000000    0.7379050000000001 O
   0.3886100000000001    0.1443400000000000    0.0120950000000000 O
   0.3886100000000001    0.1443400000000000    0.5120950000000001 O
   0.1113900000000001    0.6443400000000001    0.2379050000000000 O
   0.1113900000000001    0.6443400000000001    0.7379050000000000 O
   0.8886100000000001    0.6443400000000001    0.0120950000000000 O
   0.8886100000000001    0.6443400000000001    0.5120950000000001 O
   0.3886100000000001    0.8556600000000000    0.2620950000000000 O
   0.3886100000000001    0.8556600000000000    0.7620950000000000 O
   0.6113900000000001    0.8556600000000000    0.4879050000000001 O
   0.6113900000000001    0.8556600000000000    0.9879050000000001 O
   0.8886100000000001    0.3556600000000000    0.2620950000000000 O
   0.8886100000000001    0.3556600000000000    0.7620950000000001 O
   0.1113900000000001    0.3556600000000000    0.4879050000000000 O
   0.1113900000000001    0.3556600000000000    0.9879050000000000 O
