H96 C88 N16 O8
1.0
  14.9466859165839328    0.0000000000000000   -7.4769135584806277
  -0.0000000000000005    7.3864000000000001    0.0000000000000005
   0.0000000000000000    0.0000000000000000   17.5904999999999987
H C N O
96 88 16 8
direct
   0.3273832462621817    0.1731000000000000    0.1398787843731113 H
   0.7010000000000001    0.1731000000000000    0.3470000000000000 H
   0.7989999999999999    0.6731000000000000    0.1530000000000000 H
   0.2010000000000000    0.6731000000000000    0.3470000000000000 H
   0.7010000000000001    0.8269000000000000    0.8470000000000000 H
   0.2990000000000000    0.8269000000000000    0.6530000000000000 H
   0.2010000000000000    0.3269000000000000    0.8470000000000000 H
   0.7989999999999999    0.3269000000000000    0.6530000000000000 H
   0.4413291996230540    0.3599000000000000    0.2342357235984538 H
   0.5794000000000000    0.3599000000000000    0.2669000000000000 H
   0.9206000000000000    0.8599000000000000    0.2331000000000000 H
   0.0794000000000000    0.8599000000000000    0.2669000000000000 H
   0.5794000000000000    0.6401000000000000    0.7669000000000000 H
   0.4206000000000000    0.6401000000000000    0.7331000000000000 H
   0.0794000000000000    0.1401000000000000    0.7669000000000000 H
   0.9206000000000000    0.1401000000000000    0.7331000000000000 H
   0.7157967151596407    0.4343000000000000    0.5172804806217544 H
   0.2751000000000000    0.4343000000000000    0.0142000000000000 H
   0.2248999999999999    0.9343000000000000    0.4858000000000000 H
   0.7751000000000000    0.9343000000000000    0.0142000000000000 H
   0.2751000000000000    0.5657000000000000    0.5142000000000000 H
   0.7249000000000000    0.5657000000000000    0.9858000000000000 H
   0.7751000000000000    0.0657000000000000    0.5142000000000000 H
   0.2248999999999999    0.0657000000000000    0.9858000000000000 H
   0.7172375946386492    0.7564000000000000    0.4497839807837081 H
   0.2876000000000000    0.7564000000000000    0.0868000000000000 H
   0.2124000000000001    0.2564000000000000    0.4132000000000000 H
   0.7876000000000000    0.2564000000000000    0.0868000000000000 H
   0.2876000000000000    0.2436000000000000    0.5868000000000000 H
   0.7124000000000000    0.2436000000000000    0.9132000000000000 H
   0.7876000000000000    0.7436000000000000    0.5868000000000000 H
   0.2124000000000001    0.7436000000000000    0.9132000000000000 H
   0.6301180534804829    0.8552999999999999    0.4455185967479841 H
   0.3667000000000000    0.8552999999999999    0.0753000000000000 H
   0.1333000000000000    0.3552999999999999    0.4247000000000000 H
   0.8667000000000000    0.3552999999999999    0.0753000000000000 H
   0.3667000000000000    0.1447000000000001    0.5752999999999999 H
   0.6333000000000000    0.1447000000000001    0.9247000000000001 H
   0.8667000000000000    0.6447000000000001    0.5752999999999999 H
   0.1333000000000000    0.6447000000000001    0.9247000000000001 H
   0.6326913775438735    0.7907000000000001    0.3598345620826849 H
   0.3819000000000000    0.7907000000000000    0.1676000000000000 H
   0.1181000000000001    0.2907000000000000    0.3324000000000000 H
   0.8819000000000000    0.2907000000000000    0.1676000000000000 H
   0.3819000000000000    0.2093000000000000    0.6676000000000000 H
   0.6181000000000000    0.2093000000000000    0.8324000000000000 H
   0.8819000000000000    0.7093000000000000    0.6676000000000000 H
   0.1181000000000001    0.7093000000000000    0.8324000000000000 H
   0.4007338856655874    0.6394000000000000    0.3054433460612258 H
   0.6012999999999999    0.6394000000000000    0.1831000000000000 H
   0.8987000000000001    0.1394000000000000    0.3169000000000000 H
   0.1013000000000000    0.1394000000000000    0.1831000000000000 H
   0.6012999999999999    0.3606000000000000    0.6831000000000000 H
   0.3987000000000000    0.3606000000000000    0.8169000000000000 H
   0.1013000000000000    0.8606000000000000    0.6831000000000000 H
   0.8987000000000001    0.8606000000000000    0.8169000000000000 H
   0.4752351675074452    0.7949000000000002    0.3401959002868334 H
   0.5273000000000000    0.7949000000000001    0.1596000000000000 H
   0.9727000000000000    0.2949000000000002    0.3404000000000000 H
   0.0273000000000000    0.2949000000000002    0.1596000000000000 H
   0.5273000000000000    0.2050999999999999    0.6596000000000000 H
   0.4727000000000000    0.2050999999999999    0.8404000000000000 H
   0.0273000000000000    0.7050999999999999    0.6596000000000000 H
   0.9727000000000000    0.7050999999999999    0.8404000000000000 H
   0.4439045733580138    0.6965000000000000    0.4034804735363158 H
   0.5425000000000000    0.6965000000000000    0.0860000000000000 H
   0.9575000000000000    0.1964999999999999    0.4140000000000000 H
   0.0425000000000000    0.1964999999999999    0.0860000000000000 H
   0.5425000000000000    0.3035000000000000    0.5860000000000001 H
   0.4575000000000000    0.3035000000000000    0.9139999999999999 H
   0.0425000000000000    0.8035000000000000    0.5860000000000001 H
   0.9575000000000000    0.8035000000000000    0.9139999999999999 H
   0.4085105160293377    0.1459000000000000    0.4307936425599077 H
   0.5687000000000000    0.1459000000000000    0.0502000000000000 H
   0.9313000000000000    0.6459000000000000    0.4498000000000000 H
   0.0687000000000000    0.6459000000000000    0.0502000000000000 H
   0.5687000000000000    0.8541000000000000    0.5502000000000000 H
   0.4313000000000000    0.8541000000000000    0.9498000000000000 H
   0.0687000000000000    0.3541000000000000    0.5502000000000000 H
   0.9313000000000000    0.3541000000000000    0.9498000000000000 H
   0.2943198205622428    0.9602000000000001    0.3355547666524922 H
   0.6907000000000000    0.9601999999999999    0.1312000000000000 H
   0.8093000000000000    0.4602000000000000    0.3688000000000000 H
   0.1907000000000000    0.4602000000000000    0.1312000000000000 H
   0.6907000000000000    0.0398000000000000    0.6312000000000000 H
   0.3093000000000000    0.0398000000000000    0.8688000000000000 H
   0.1907000000000000    0.5398000000000001    0.6312000000000000 H
   0.8093000000000000    0.5398000000000001    0.8688000000000000 H
   0.2549477372854899    0.9706000000000001    0.1904890685616659 H
   0.7557000000000000    0.9706000000000000    0.2794000000000000 H
   0.7443000000000000    0.4706000000000000    0.2206000000000000 H
   0.2557000000000000    0.4706000000000000    0.2794000000000000 H
   0.7557000000000000    0.0294000000000000    0.7794000000000000 H
   0.2443000000000000    0.0294000000000000    0.7206000000000000 H
   0.2557000000000000    0.5294000000000000    0.7794000000000000 H
   0.7443000000000000    0.5294000000000000    0.7206000000000000 H
   0.5892470230590404    0.3005500000000000    0.4605889052214088 C
   0.4003200000000000    0.3005500000000000    0.0516100000000000 C
   0.0996800000000000    0.8005500000000000    0.4483900000000000 C
   0.9003200000000000    0.8005500000000000    0.0516100000000000 C
   0.4003200000000000    0.6994500000000000    0.5516099999999999 C
   0.5996800000000000    0.6994500000000000    0.9483900000000001 C
   0.9003200000000000    0.1994500000000000    0.5516099999999999 C
   0.0996800000000000    0.1994500000000000    0.9483900000000001 C
   0.3441514672168781    0.1670600000000000    0.1990043242174498 C
   0.6738600000000000    0.1670600000000000    0.2867300000000000 C
   0.8261400000000000    0.6670600000000000    0.2132700000000000 C
   0.1738600000000000    0.6670600000000000    0.2867300000000000 C
   0.6738600000000000    0.8329400000000000    0.7867300000000000 C
   0.3261400000000000    0.8329400000000000    0.7132700000000000 C
   0.1738600000000000    0.3329400000000000    0.7867300000000000 C
   0.8261400000000000    0.3329400000000000    0.7132700000000000 C
   0.4118802707679005    0.2779100000000000    0.2549020056410021 C
   0.6016200000000000    0.2779100000000000    0.2393200000000000 C
   0.8983800000000000    0.7779100000000000    0.2606800000000000 C
   0.1016200000000000    0.7779100000000000    0.2393200000000000 C
   0.6016200000000000    0.7220900000000000    0.7393200000000000 C
   0.3983800000000000    0.7220900000000000    0.7606800000000000 C
   0.1016200000000000    0.2220900000000000    0.7393200000000000 C
   0.8983800000000000    0.2220900000000000    0.7606800000000000 C
   0.6544927000348549    0.4406600000000001    0.4772413559768459 C
   0.3383300000000000    0.4406600000000000    0.0458000000000000 C
   0.1616700000000000    0.9406600000000001    0.4542000000000000 C
   0.8383300000000000    0.9406600000000001    0.0458000000000000 C
   0.3383300000000000    0.5593399999999999    0.5458000000000001 C
   0.6616700000000000    0.5593399999999999    0.9541999999999999 C
   0.8383300000000000    0.0593400000000000    0.5458000000000001 C
   0.1616700000000000    0.0593400000000000    0.9541999999999999 C
   0.6139725862462149    0.5830800000000000    0.4263258232787723 C
   0.3851200000000000    0.5830800000000000    0.0928900000000000 C
   0.1148799999999999    0.0830800000000000    0.4071100000000000 C
   0.8851200000000000    0.0830800000000000    0.0928900000000000 C
   0.3851200000000000    0.4169200000000000    0.5928899999999999 C
   0.6148800000000000    0.4169200000000000    0.9071100000000001 C
   0.8851200000000000    0.9169200000000000    0.5928899999999999 C
   0.1148799999999999    0.9169200000000000    0.9071100000000001 C
   0.6517299020264751    0.7616100000000001    0.4197987968449814 C
   0.3525500000000000    0.7616100000000000    0.1068500000000000 C
   0.1474500000000001    0.2616100000000001    0.3931500000000000 C
   0.8525500000000000    0.2616100000000001    0.1068500000000000 C
   0.3525500000000000    0.2383900000000000    0.6068500000000000 C
   0.6474500000000000    0.2383900000000000    0.8931500000000000 C
   0.8525500000000000    0.7383900000000000    0.6068500000000000 C
   0.1474500000000001    0.7383900000000000    0.8931500000000000 C
   0.4555829593091591    0.6798600000000000    0.3540758033350941 C
   0.5421100000000000    0.6798600000000000    0.1411000000000000 C
   0.9578900000000000    0.1798600000000001    0.3589000000000000 C
   0.0421100000000000    0.1798600000000001    0.1411000000000000 C
   0.5421100000000000    0.3201400000000000    0.6411000000000000 C
   0.4578900000000000    0.3201400000000000    0.8589000000000000 C
   0.0421100000000000    0.8201400000000000    0.6411000000000000 C
   0.9578900000000000    0.8201400000000000    0.8589000000000000 C
   0.4363186886914825    0.2682900000000000    0.3413445779681141 C
   0.5620100000000000    0.2682900000000000    0.1511900000000000 C
   0.9379900000000000    0.7682899999999999    0.3488100000000000 C
   0.0620100000000000    0.7682899999999999    0.1511900000000000 C
   0.5620100000000000    0.7317100000000001    0.6511899999999999 C
   0.4379900000000000    0.7317100000000001    0.8488100000000001 C
   0.0620100000000000    0.2317100000000000    0.6511899999999999 C
   0.9379900000000000    0.2317100000000000    0.8488100000000001 C
   0.3923250859415067    0.1508100000000000    0.3717497586421858 C
   0.5952999999999999    0.1508100000000000    0.1104900000000000 C
   0.9047000000000001    0.6508100000000000    0.3895100000000000 C
   0.0953000000000000    0.6508100000000000    0.1104900000000000 C
   0.5952999999999999    0.8491900000000000    0.6104900000000000 C
   0.4047000000000000    0.8491900000000000    0.8895100000000000 C
   0.0953000000000000    0.3491900000000000    0.6104900000000000 C
   0.9047000000000001    0.3491900000000000    0.8895100000000000 C
   0.3246179135337268    0.0408100000000000    0.3150719797346082 C
   0.6676800000000001    0.0408100000000000    0.1587400000000000 C
   0.8323199999999999    0.5408100000000000    0.3412600000000000 C
   0.1676800000000000    0.5408100000000000    0.1587400000000000 C
   0.6676800000000001    0.9591900000000000    0.6587400000000000 C
   0.3323200000000000    0.9591900000000000    0.8412600000000000 C
   0.1676800000000000    0.4591900000000000    0.6587400000000000 C
   0.8323199999999999    0.4591900000000000    0.8412600000000000 C
   0.3007811283343372    0.0475000000000000    0.2288729370948095 C
   0.7067000000000000    0.0475000000000000    0.2467200000000000 C
   0.7933000000000000    0.5475000000000000    0.2532800000000000 C
   0.2067000000000000    0.5475000000000000    0.2467200000000000 C
   0.7067000000000000    0.9525000000000000    0.7467200000000001 C
   0.2933000000000000    0.9525000000000000    0.7532799999999999 C
   0.2067000000000000    0.4525000000000000    0.7467200000000001 C
   0.7933000000000000    0.4525000000000000    0.7532799999999999 C
   0.5082401332359896    0.3750400000000000    0.4005953558391187 N
   0.4853200000000000    0.3750400000000000    0.1009600000000000 N
   0.0146800000000000    0.8750400000000000    0.3990400000000000 N
   0.9853200000000000    0.8750400000000000    0.1009600000000000 N
   0.4853200000000000    0.6249600000000000    0.6009599999999999 N
   0.5146800000000000    0.6249600000000000    0.8990400000000001 N
   0.9853200000000000    0.1249600000000000    0.6009599999999999 N
   0.0146800000000000    0.1249600000000000    0.8990400000000001 N
   0.5255495862091603    0.5438100000000000    0.3736684057606950 N
   0.4752800000000000    0.5438100000000000    0.1330100000000000 N
   0.0247199999999999    0.0438100000000001    0.3669900000000000 N
   0.9752800000000000    0.0438100000000001    0.1330100000000000 N
   0.4752800000000000    0.4561900000000000    0.6330100000000001 N
   0.5247200000000000    0.4561900000000000    0.8669899999999999 N
   0.9752800000000000    0.9561900000000000    0.6330100000000001 N
   0.0247199999999999    0.9561900000000000    0.8669899999999999 N
   0.5961926682772766    0.1443400000000000    0.4873706445787787 O
   0.3886100000000000    0.1443400000000000    0.0241900000000000 O
   0.1113900000000001    0.6443400000000000    0.4758100000000000 O
   0.8886100000000000    0.6443400000000000    0.0241900000000000 O
   0.3886100000000000    0.8556600000000000    0.5241899999999999 O
   0.6113900000000000    0.8556600000000000    0.9758100000000001 O
   0.8886100000000000    0.3556600000000000    0.5241899999999999 O
   0.1113900000000001    0.3556600000000000    0.9758100000000001 O
