H96 C88 N16 O8
1.0
  14.9466859165839328    0.0000000000000000   -7.4769135584806277
  -0.0000000000000005    7.3864000000000001    0.0000000000000005
   0.0000000000000000    0.0000000000000000   17.5904999999999987
H C N O
96 88 16 8
direct
   0.3046053074168315    0.1720846827200751    0.1521877656958396 H
   0.6996162698172957    0.1801862967270536    0.3465733375308350 H
   0.7983554826202945    0.6597322125933841    0.1580635265456528 H
   0.1998377513329328    0.6689281465003994    0.3484003566868486 H
   0.7032244827786217    0.8153041921341232    0.8524206958158786 H
   0.2980503059560654    0.8208513482967819    0.6508751976326799 H
   0.2024954583161545    0.3209524466258297    0.8512053455285744 H
   0.8012376221751725    0.3345741363454428    0.6550736546445853 H
   0.4213302363764234    0.3585797616514563    0.2378038858879861 H
   0.5710797993236507    0.3596211446503450    0.2652555588020879 H
   0.9147641363163159    0.8639285608293668    0.2327495785886077 H
   0.0850763069743183    0.8730817288759629    0.2689376499817012 H
   0.5817614987994042    0.6371018617400370    0.7672453037302749 H
   0.4175339431032912    0.6413356729291407    0.7334711979669702 H
   0.0762515957855323    0.1454880757953158    0.7670108435355356 H
   0.9140177271899355    0.1481691630047549    0.7336185675580521 H
   0.7249550129999059    0.4340027235296133    0.4880618222535377 H
   0.2778036881321384    0.4297787666984205    0.0110878074501709 H
   0.2274547436976984    0.9374200866576380    0.4828722518810075 H
   0.7770353938523868    0.9321901994193109    0.0153951112053778 H
   0.2728430557842742    0.5662840347982632    0.5144194463490358 H
   0.7282658562896335    0.5746919021828414    0.9869682399097026 H
   0.7772181420082984    0.0537500985423185    0.5147118926980070 H
   0.2233556544042393    0.0677493052380275    0.9876064261889783 H
   0.7110375081834427    0.7573008240241700    0.4107860662152157 H
   0.2861111164984700    0.7629905525190093    0.0806848726344437 H
   0.2154871151291119    0.2627854629209477    0.4165538631426219 H
   0.7847422092701986    0.2529773162447122    0.0806021098564294 H
   0.2847806245718634    0.2485449117170195    0.5860708603157363 H
   0.7141007441489394    0.2500586428692199    0.9163016106022505 H
   0.7854366631191446    0.7579127737593518    0.5833822784754991 H
   0.2097557982866679    0.7481793591991729    0.9114219306071127 H
   0.6343294954914855    0.8532890490151506    0.4237180578404190 H
   0.3675602601048685    0.8606005615123806    0.0763439333397997 H
   0.1286982965666229    0.3517025958723611    0.4267759953352964 H
   0.8733732313043449    0.3441268188499877    0.0766123198101697 H
   0.3639671673772328    0.1420594301943466    0.5746107872421999 H
   0.6365219915259747    0.1388623586173708    0.9240665676144647 H
   0.8636516017723574    0.6532490595375557    0.5711780734157896 H
   0.1380848520107096    0.6413194074055225    0.9251507966149379 H
   0.6198513184176874    0.7822782521861761    0.3375300519137314 H
   0.3797300555700052    0.7741278941880619    0.1682512164334934 H
   0.1124383957574564    0.2956496909708455    0.3280152318001619 H
   0.8823614201783222    0.2905344681275664    0.1694849833644714 H
   0.3860789736704832    0.2030786642031321    0.6721773387574462 H
   0.6171509362789180    0.2044157688504463    0.8355955730605160 H
   0.8799085434747568    0.7185382137620151    0.6664845348838876 H
   0.1187841317752553    0.7176108432944412    0.8376268997890639 H
   0.3966143839318516    0.6406927268502820    0.3197255601104446 H
   0.5965210308166214    0.6327356040697839    0.1806148517333327 H
   0.9021542509055920    0.1351189921724425    0.3183735793540359 H
   0.1041423579618855    0.1395482318639499    0.1874050227175844 H
   0.5952222550712398    0.3598463825370835    0.6788457867126461 H
   0.4023346251003833    0.3626712075025904    0.8183968599242833 H
   0.1051724073624798    0.8728498818110620    0.6876917049302460 H
   0.9018660087721433    0.8593953755865215    0.8214446498151514 H
   0.4776829403048137    0.7918686823229233    0.3393601562222902 H
   0.5192541552446771    0.7956885517628398    0.1535464514650884 H
   0.9690304079633947    0.2966142742763568    0.3367279225490565 H
   0.0280782216232462    0.3002928367871722    0.1562866939115644 H
   0.5292625646638658    0.2115726428513212    0.6581887034000463 H
   0.4710306576990432    0.2056512147702215    0.8402977175412024 H
   0.0231867704997215    0.7061223780816545    0.6597520174605555 H
   0.9642165746193013    0.7070004248392167    0.8358929253596792 H
   0.4571746142219580    0.7093108995366174    0.4115047760441948 H
   0.5361807153696486    0.7053181136116021    0.0844114728756977 H
   0.9554256403668521    0.1886796821137300    0.4194054890607385 H
   0.0391702735169008    0.1966544826183899    0.0870732608020058 H
   0.5396518998591284    0.3014949829181162    0.5877451277465785 H
   0.4602012401249099    0.2888823055544610    0.9120002146587970 H
   0.0426142068495479    0.8065564486608846    0.5861412025072085 H
   0.9514153010918662    0.7959029931865720    0.9105872590990700 H
   0.4373988974702578    0.1503438103513231    0.4554643168570695 H
   0.5648460789814557    0.1437258791346301    0.0499883457450782 H
   0.9280005374972807    0.6450893264487443    0.4511652756037655 H
   0.0627689226639323    0.6460571085332378    0.0443884395126959 H
   0.5711374316666038    0.8580125767485181    0.5501999099184796 H
   0.4329144404022949    0.8538179543567950    0.9493663868991351 H
   0.0691298791961553    0.3655932297783137    0.5497589865497757 H
   0.9340346991561652    0.3512822783122246    0.9513832128645411 H
   0.3137209109525645    0.9638324850447859    0.3704503189334507 H
   0.6938371792544030    0.9517553877611608    0.1291656832721090 H
   0.8138767565618592    0.4565399751975320    0.3706288237514631 H
   0.1906019050893158    0.4670088833021666    0.1311740006844531 H
   0.6884066957291789    0.0448100879145827    0.6265195432303148 H
   0.3133037570938588    0.0313686412148787    0.8700743065403341 H
   0.1940999198451688    0.5287304600412507    0.6321803564098283 H
   0.8109493321266711    0.5448445458652952    0.8697738204790254 H
   0.2413736938361984    0.9638707933516942    0.2209999513577717 H
   0.7545414767336125    0.9812063541453421    0.2736083720752343 H
   0.7408719692427176    0.4683412594056074    0.2172303967372385 H
   0.2509932389139943    0.4660371306085339    0.2786536911884751 H
   0.7506052955020591    0.0352704650624898    0.7753191078407887 H
   0.2367427500789732    0.0391035162272430    0.7143670005494102 H
   0.2570034594845265    0.5326267487091405    0.7755631369313856 H
   0.7448254110966078    0.5329528948254306    0.7264973847655192 H
   0.6024134552117695    0.3000746385331806    0.4532797180039584 C
   0.4038527096550212    0.2981096696861724    0.0490622270312354 C
   0.0959191038996957    0.7989656368636807    0.4449524949854253 C
   0.8998584619448269    0.7953619585033408    0.0551325380731997 C
   0.4041639844569386    0.7010756598831133    0.5595379075107851 C
   0.6017003553619780    0.6992958338221859    0.9530560893065567 C
   0.8966533939388356    0.2067722821346090    0.5559261640988070 C
   0.0990702699510438    0.2042282935750318    0.9523592777569956 C
   0.3260080190007384    0.1485495885371375    0.2109884488853993 C
   0.6721726690654826    0.1724250962474923    0.2891969854897863 C
   0.8241336317943171    0.6822718054797265    0.2116216585418799 C
   0.1778285667398432    0.6700931569799787    0.2898310607486117 C
   0.6725284320661039    0.8311244232073631    0.7886553060944740 C
   0.3268347946937862    0.8302631105670508    0.7146271419150800 C
   0.1800548882361031    0.3398081093974474    0.7881529234416546 C
   0.8199972230079654    0.3404260553758739    0.7136870816472916 C
   0.3935991928328911    0.2783922860918143    0.2564060671321375 C
   0.6006876295374521    0.2856847967341711    0.2413167943823836 C
   0.8973309559108835    0.7758682661246723    0.2597578649603999 C
   0.0984531015986449    0.7693911864975231    0.2393870410825769 C
   0.6054775282668239    0.7155378096110012    0.7407538231575677 C
   0.3971470595303939    0.7279474779560494    0.7646380922183428 C
   0.1004244036055486    0.2086559444005752    0.7381516923407340 C
   0.8929556613166983    0.2181879149258657    0.7583860512517162 C
   0.6690317615570158    0.4383938016909819    0.4544115437455123 C
   0.3441370158511365    0.4368326417288179    0.0454108959414293 C
   0.1579453219713687    0.9339361585202641    0.4546621435596797 C
   0.8371271657236353    0.9309314187720573    0.0458377526006051 C
   0.3364402648012356    0.5645650614867246    0.5431365007399408 C
   0.6690760483643464    0.5516496369398924    0.9576759421532332 C
   0.8330489810558824    0.0562372147308909    0.5437480796853164 C
   0.1651662790721545    0.0607393870033212    0.9557449859954477 C
   0.6162861130343822    0.5789865109857431    0.4131516738102651 C
   0.3846750360841808    0.5764351604429623    0.0895074109759488 C
   0.1114079097399964    0.0730548699192204    0.4051342106992624 C
   0.8851658170097824    0.0893359334643509    0.0930472535015431 C
   0.3883926188830261    0.4232499813065043    0.5952056041642820 C
   0.6166408250131246    0.4062402787726918    0.9085217115469700 C
   0.8876691996376352    0.9143072306268578    0.5975633335147617 C
   0.1219787014235641    0.9072975593363479    0.9089098409828972 C
   0.6488980012679466    0.7660297159304791    0.3886121088851327 C
   0.3557010519172192    0.7712266855856168    0.1105652533351683 C
   0.1467478127078731    0.2588216630684871    0.3893547876102363 C
   0.8569719745584028    0.2572072856391651    0.1047188432524092 C
   0.3499219743895537    0.2415885318953527    0.6059054422172925 C
   0.6486563674104928    0.2401524078200791    0.8959786964935964 C
   0.8565799490486693    0.7389891188427018    0.6056584051241169 C
   0.1465039651788974    0.7216694621795265    0.8909877214990806 C
   0.4608243927761086    0.6752727509039128    0.3571990958445866 C
   0.5451119732023102    0.6811774953149220    0.1466805302734316 C
   0.9632218533966505    0.1861167793858537    0.3647533099020928 C
   0.0419256051830114    0.1767956140504200    0.1385499901384111 C
   0.5418273037177588    0.3211907162090562    0.6364416141570394 C
   0.4541305379492994    0.3118285528529456    0.8550457607865352 C
   0.0403623324182964    0.8085755257854959    0.6364160765184715 C
   0.9544951203147309    0.8291355821426686    0.8603060082778049 C
   0.4359117225241533    0.2620078102141015    0.3457954497933817 C
   0.5578744397845761    0.2601262505650975    0.1507967671430674 C
   0.9366783668754122    0.7847406415999157    0.3477670711898376 C
   0.0622183457374141    0.7766861033199235    0.1522882484473927 C
   0.5592848393266749    0.7318691860108781    0.6566856280444763 C
   0.4358973415058852    0.7309576316145822    0.8456104689644448 C
   0.0593967055238082    0.2411273438032285    0.6524923716046288 C
   0.9377498820069406    0.2215550856852414    0.8450757704059315 C
   0.4060747368248142    0.1520976941405954    0.3918629655113317 C
   0.5932167138363046    0.1520602504854636    0.1134077559785164 C
   0.9084090554637323    0.6436755607410837    0.3908900664071576 C
   0.0975533510906235    0.6493805899227558    0.1069947949056134 C
   0.5969269893847505    0.8463291940614963    0.6124545239333143 C
   0.4026762800433865    0.8632128413148249    0.8892011234763776 C
   0.0960850042070740    0.3572514051089468    0.6102634195974558 C
   0.9027757593069742    0.3325910666898133    0.8885242525646357 C
   0.3365601349148996    0.0469166137487941    0.3382775048101517 C
   0.6669402356147360    0.0438026908205076    0.1591972171313192 C
   0.8283921646922962    0.5451292957402752    0.3454198316144151 C
   0.1632221755677637    0.5334903795138765    0.1598238273630754 C
   0.6721552433958946    0.9491048145778396    0.6591796072888797 C
   0.3329407348551477    0.9480238874728465    0.8368861728185274 C
   0.1655507416219335    0.4512938750566983    0.6575171397181113 C
   0.8322260942097547    0.4739110999612686    0.8407712041702532 C
   0.2905251635824092    0.0616082296505791    0.2492978254054628 C
   0.7067917778423988    0.0610720993071598    0.2513228404322002 C
   0.7880674787476327    0.5430630202268477    0.2536951715288076 C
   0.2036046663543297    0.5419103292084021    0.2493003954610279 C
   0.7105060477117183    0.9595210528914242    0.7448047311919326 C
   0.2972526970472616    0.9462483813949208    0.7559390072670908 C
   0.2112722700779013    0.4464146727596088    0.7494673059849289 C
   0.7930352617798879    0.4448392236811841    0.7478650502915460 C
   0.5143384817954449    0.3630027542484209    0.3962656097485782 N
   0.4872824879356214    0.3756313758735239    0.1032337466568219 N
   0.0136440319643636    0.8744459597775366    0.4044554409165166 N
   0.9890189033127259    0.8716360540097953    0.1052357792742073 N
   0.4824494874978980    0.6263990696280708    0.6050252158995072 N
   0.5189691244744308    0.6202154055509905    0.8958754689313808 N
   0.9901278672879273    0.1157691166503799    0.6018246068936665 N
   0.0095643192295510    0.1237901292111943    0.8942461876302288 N
   0.5289158706095649    0.5317635416661597    0.3645513289231279 N
   0.4764561824014546    0.5494983002174690    0.1347500929605740 N
   0.0251679754978280    0.0324751380629697    0.3667779306535132 N
   0.9757748998397009    0.0422458333662230    0.1318100290576704 N
   0.4777838528282645    0.4534806940605431    0.6289102899715863 N
   0.5311570206082407    0.4660901763132452    0.8738302840260362 N
   0.9749885039694122    0.9585787410917922    0.6367688928278824 N
   0.0286303757329973    0.9512425958994916    0.8716014515127999 N
   0.6063233587273109    0.1532091892535695    0.4726327335947512 O
   0.3842757670654976    0.1326654051065965    0.0224292828532782 O
   0.1164468386587906    0.6414542839044369    0.4793544409556648 O
   0.8891154869631535    0.6551785639038732    0.0177859141112356 O
   0.3915610343697651    0.8544312390741552    0.5249299273684359 O
   0.6097678795743828    0.8541974116787885    0.9765961934453328 O
   0.8913100043413893    0.3574317018200740    0.5266772791985913 O
   0.1147821991890454    0.3610676306102337    0.9751191642620447 O
