H96 C88 N16 O8
1.0
  14.9466859165839328    0.0000000000000000   -7.4769135584806277
  -0.0000000000000005    7.3864000000000001    0.0000000000000005
   0.0000000000000000    0.0000000000000000   17.5904999999999987
H C N O
96 88 16 8
direct
   0.3011109623167966    0.1742387865211650    0.1560498300160286 H
   0.7014171324164318    0.1797616528445188    0.3475365493177598 H
   0.7967792660928958    0.6754694711944025    0.1539346072684075 H
   0.2011338658969596    0.6726964367594591    0.3442217936268024 H
   0.7028899301293161    0.8240541406297559    0.8498213945664450 H
   0.2977943206150003    0.8323954325048775    0.6537932888480140 H
   0.2021381373777550    0.3332618355699498    0.8475728060930505 H
   0.8021117476707916    0.3248411635535919    0.6537386764800699 H
   0.4199692284430316    0.3534801119397041    0.2321072697628642 H
   0.5803072900817851    0.3550355580075437    0.2691057733527896 H
   0.9226934347896921    0.8591827403312846    0.2361863332411261 H
   0.0793009155208357    0.8595005892013822    0.2696941254931839 H
   0.5776711205831823    0.6440004094418215    0.7679648521023461 H
   0.4192153517507362    0.6425956355844304    0.7348772615444464 H
   0.0802863403587770    0.1377585754445327    0.7698351865798874 H
   0.9204738048439297    0.1438293357801421    0.7354161057853079 H
   0.7234707069501854    0.4385316697155023    0.4870491140656069 H
   0.2754857455108171    0.4369406953630471    0.0169605956676453 H
   0.2270287337444294    0.9333936104804665    0.4888642035496404 H
   0.7753523882489922    0.9340468737268047    0.0171396267701278 H
   0.2755064178125192    0.5690793456690867    0.5119341797638276 H
   0.7256274376764587    0.5670379210622315    0.9833922524483100 H
   0.7735428342511691    0.0612878071902200    0.5118362807398856 H
   0.2225989288902798    0.0644061751056173    0.9868122512923849 H
   0.7103145157371484    0.7615218655631434    0.4128737196634248 H
   0.2847203536070830    0.7567511250100843    0.0841369980783026 H
   0.2126256961360916    0.2533618398422621    0.4107631143110289 H
   0.7908253991142956    0.2579682683649241    0.0878038471746537 H
   0.2849981380920240    0.2478486242025739    0.5855989954339211 H
   0.7106648402344471    0.2384500661468372    0.9135712059653339 H
   0.7892208926359080    0.7412620135991683    0.5852045018313551 H
   0.2147359054360362    0.7387581486608309    0.9142724024249791 H
   0.6346788067210852    0.8611309277279259    0.4261298443773703 H
   0.3668965014287980    0.8560697584741641    0.0725644583434144 H
   0.1348992293101488    0.3571523610372247    0.4230074281732149 H
   0.8671127849916919    0.3489244358861933    0.0745870233746834 H
   0.3695956881449561    0.1480035766786075    0.5762126479007162 H
   0.6340919695942021    0.1452762821182651    0.9222856153105715 H
   0.8646969915175096    0.6401634366609569    0.5756952135035468 H
   0.1320460350769521    0.6462742882871020    0.9267179194329684 H
   0.6162929171275183    0.7864640971188392    0.3300325062210969 H
   0.3811192756048200    0.7956251778700120    0.1654345004317866 H
   0.1194204687133932    0.2845760001176427    0.3334172054009241 H
   0.8809531048522974    0.2963612274953016    0.1685320855964197 H
   0.3811986140346686    0.2158868672304388    0.6670294665233413 H
   0.6185886538429949    0.2033854922814199    0.8339264365251444 H
   0.8821223433311077    0.7037224285018733    0.6692940396490692 H
   0.1160855956903010    0.7144125183416884    0.8308082056659408 H
   0.3961224614569647    0.6436855019899795    0.3160153653671972 H
   0.6020338725501969    0.6334013949494881    0.1845720904756144 H
   0.9008077953848080    0.1371825319476178    0.3197971265258123 H
   0.1024491891280151    0.1418304665908260    0.1811218051378871 H
   0.6032382730447116    0.3657904098188242    0.6831384940406161 H
   0.4016136205544450    0.3604561036762259    0.8195336863288348 H
   0.1028233848867249    0.8560468590289625    0.6820896363912908 H
   0.9015885014689211    0.8600025342871148    0.8167161635313209 H
   0.4757869632645205    0.7965042276375617    0.3408486548803460 H
   0.5297412694510018    0.7963075978926584    0.1587864033733851 H
   0.9698739612705168    0.2944440533290678    0.3376899303932477 H
   0.0296362764485060    0.2983139219453299    0.1620365412705662 H
   0.5246872602111348    0.2035607133282981    0.6568362417526122 H
   0.4703729514851418    0.2013339475728232    0.8407027604371753 H
   0.0303064440868123    0.7032233792212285    0.6618436324668979 H
   0.9741237021366725    0.6992027651966582    0.8403094500164174 H
   0.4589988980728228    0.6913704421893728    0.4132888152671249 H
   0.5440975252289796    0.7010979015557758    0.0882631114212457 H
   0.9571221210255737    0.2011749879307258    0.4158698382808225 H
   0.0445997866519385    0.2017622484958307    0.0867762073673590 H
   0.5456611116896608    0.3021017549428633    0.5866224344390126 H
   0.4570900327680024    0.3011895508985148    0.9164746835900055 H
   0.0408543974775188    0.7976316908373170    0.5850719016736228 H
   0.9541983229158143    0.8042432986310866    0.9129306166327090 H
   0.4285548917535650    0.1426901563916644    0.4495398999537414 H
   0.5712635130732258    0.1429588526904580    0.0499444274908818 H
   0.9320577612171101    0.6393564696673797    0.4497827555394461 H
   0.0686538853913956    0.6491659414690921    0.0526698205318243 H
   0.5665618071758342    0.8576938052443610    0.5477095919480695 H
   0.4338646032615912    0.8530327545683400    0.9526592643058571 H
   0.0685480040870014    0.3596298540316575    0.5517697034662558 H
   0.9344673028378524    0.3534411672020954    0.9520180817095568 H
   0.3105553635326727    0.9651262186821556    0.3709653824965823 H
   0.6915201187549637    0.9643128486301430    0.1336959832262799 H
   0.8098155292060570    0.4565200555183620    0.3666739554078559 H
   0.1935740136479752    0.4567359221294048    0.1324219873987062 H
   0.6911575018954115    0.0454831685964994    0.6299000034620338 H
   0.3075258744752566    0.0451238575241628    0.8689455596557510 H
   0.1902464243608992    0.5393672150334634    0.6281968816387666 H
   0.8067007541467156    0.5362256575075377    0.8686693188008695 H
   0.2462647839087913    0.9666269447436213    0.2198511485990321 H
   0.7546105264892090    0.9735381606615109    0.2765493739073490 H
   0.7428697897985895    0.4644812836815398    0.2200286675158981 H
   0.2533390617259457    0.4713159085385976    0.2764053182227404 H
   0.7590408006892562    0.0290592746751165    0.7807903818974385 H
   0.2472517544256946    0.0300874997395006    0.7205487005169442 H
   0.2588970025775479    0.5298017920995424    0.7799393582670079 H
   0.7469507197930578    0.5309909552383404    0.7201266273318372 H
   0.6015174177329726    0.3016111311755068    0.4515041153694840 C
   0.3983564755833564    0.2983193081629705    0.0528774206466997 C
   0.1020142266394759    0.8053950390574928    0.4493013101339987 C
   0.9007296610221894    0.7986869877033025    0.0544945400101152 C
   0.4015257358296711    0.7039755655306696    0.5539714544711400 C
   0.5999032318213359    0.7027706461943058    0.9509545505325894 C
   0.8996982878795893    0.1952318395325761    0.5535051643816572 C
   0.0991236541954676    0.2009113412133958    0.9508883851183777 C
   0.3289861274192530    0.1685935881163488    0.2131320477100006 C
   0.6722045717792823    0.1694580910629710    0.2882817682293809 C
   0.8257985994529828    0.6663805162438677    0.2159380561780944 C
   0.1715488999959657    0.6643688447037052    0.2874641060103391 C
   0.6754142101866744    0.8388568181894726    0.7877938705132609 C
   0.3249646284183557    0.8391070486515910    0.7121571794955507 C
   0.1715099689447830    0.3345848085047017    0.7838297563808917 C
   0.8261553050802102    0.3383550137925611    0.7149821145992390 C
   0.3958592776129053    0.2752898848861802    0.2580981106724323 C
   0.5984867634840386    0.2788855614933984    0.2388958050275092 C
   0.9014469225716287    0.7786995279633265    0.2608980256005631 C
   0.1043519570482428    0.7748502583930236    0.2415010720431621 C
   0.6019624821090143    0.7155919788640129    0.7402069787926251 C
   0.3952973432123367    0.7203385133389626    0.7585465188804015 C
   0.1001304826371451    0.2272718607193598    0.7400071215023144 C
   0.9007858634552736    0.2177152665449699    0.7624278334131700 C
   0.6642861601044393    0.4370929457658921    0.4543662646443419 C
   0.3403485027355758    0.4459156208939093    0.0461407606719038 C
   0.1583686184909918    0.9416861512546395    0.4529539660701553 C
   0.8392847934549128    0.9392042974169931    0.0488605801957198 C
   0.3409188240726637    0.5551474238595834    0.5465244637491619 C
   0.6625774165690660    0.5635149471241591    0.9524853090715296 C
   0.8407840333639540    0.0613208958940480    0.5450996654860191 C
   0.1643781405557720    0.0553769177800011    0.9554736993044456 C
   0.6134881857516907    0.5809194568080941    0.4089386948545785 C
   0.3873306391002886    0.5780486160505159    0.0935337260509532 C
   0.1157908790361569    0.0772155471073202    0.4063070574839772 C
   0.8826626027765559    0.0827958400236328    0.0899205655354755 C
   0.3869232384941160    0.4199029317728430    0.5956967917510440 C
   0.6145972683180043    0.4165711891916856    0.9098183069220637 C
   0.8826239182537057    0.9212994192586912    0.5913824874816639 C
   0.1145208910967778    0.9174039340441367    0.9041386569315218 C
   0.6462999394061820    0.7675514732357374    0.3936099222340905 C
   0.3541969292285542    0.7658909306161292    0.1058500917642339 C
   0.1481026815403535    0.2673514044618530    0.3948273009299239 C
   0.8498839523598302    0.2575244344433526    0.1056494707246498 C
   0.3510970974365873    0.2379966550289799    0.6036774176605563 C
   0.6471313631838660    0.2346749174765244    0.8953751970872816 C
   0.8505645278883815    0.7329464322876252    0.6060978843019652 C
   0.1474073969294361    0.7450617240096133    0.8926526250022385 C
   0.4582380083817361    0.6865815908944413    0.3592085553814818 C
   0.5421570376083155    0.6739050754818509    0.1397689678970229 C
   0.9572801051759244    0.1806010926988221    0.3614181855545232 C
   0.0416864952946499    0.1856450645113613    0.1423514166722990 C
   0.5401214101751557    0.3238148668361552    0.6385685668266474 C
   0.4574176514303650    0.3192668008279845    0.8614892004536359 C
   0.0432476447220495    0.8235023297527471    0.6393138302934291 C
   0.9596504275502267    0.8246776613133371    0.8611353516120722 C
   0.4371773706869478    0.2617267518013174    0.3485504307217862 C
   0.5604094956822109    0.2635901629702074    0.1489815279559772 C
   0.9367281798362860    0.7742856692787143    0.3475045936036472 C
   0.0624096173140704    0.7659174356501365    0.1540002476615168 C
   0.5616707807663039    0.7266827423767163    0.6491642890940894 C
   0.4390405132739864    0.7362322121359102    0.8511740308261904 C
   0.0642221054389271    0.2288861001551834    0.6539023816372119 C
   0.9389590922318586    0.2373857566755177    0.8479099256088264 C
   0.4048864880518768    0.1520841304914393    0.3923764041118297 C
   0.5982199425616467    0.1516968198274442    0.1130671909382080 C
   0.9017655500622533    0.6488355768733349    0.3871787121845405 C
   0.0924208752707379    0.6533376560867098    0.1102501279867456 C
   0.5958757629019721    0.8546472228951190    0.6091256894845252 C
   0.4079394800648293    0.8478763822378088    0.8913324349571164 C
   0.0953518261024398    0.3426017902999458    0.6111634325180448 C
   0.9050865176970150    0.3500123990744100    0.8868720834098389 C
   0.3294833957000771    0.0441069292714868    0.3406488497576679 C
   0.6691316268970162    0.0469011666557613    0.1594838607925812 C
   0.8294029173947655    0.5439418826611941    0.3404742548284375 C
   0.1684221389326781    0.5412375806828911    0.1562896589925398 C
   0.6652405901046113    0.9615026596393116    0.6593883652983854 C
   0.3335301866788086    0.9647408005450165    0.8405137096409604 C
   0.1679088168477029    0.4563410941124793    0.6614083677694341 C
   0.8335846674209300    0.4632707368923343    0.8437946833749294 C
   0.2938320765057483    0.0408332281534332    0.2537017457541683 C
   0.7060872156713044    0.0506186386085195    0.2489280290202442 C
   0.7953237000559372    0.5438633628594058    0.2558107394174642 C
   0.2051753154171277    0.5507665445408415    0.2439459752917104 C
   0.7057854183561587    0.9567191621670832    0.7442487597447578 C
   0.2901693964442359    0.9506815180288790    0.7525976887563242 C
   0.2052547300088338    0.4493306533815526    0.7482966309276705 C
   0.7928917646167913    0.4584413235419362    0.7544236992797987 C
   0.5163407591311614    0.3784886149991334    0.3977481294328183 N
   0.4831645881980189    0.3770308711210790    0.0980372500487368 N
   0.0135451223846653    0.8717013079408586    0.4008344872811215 N
   0.9881845091804212    0.8773857122722047    0.1032661634679184 N
   0.4854804561986827    0.6250833744128422    0.6038669015279098 N
   0.5176446110736505    0.6221753865189354    0.9009056919643736 N
   0.9872645364639316    0.1268543568817183    0.5996147333099804 N
   0.0155242412075382    0.1258408913956270    0.9021242961444992 N
   0.5218906740638127    0.5458492211898737    0.3670390369972232 N
   0.4730376006685677    0.5387885375810643    0.1320017146673599 N
   0.0216914687176039    0.0427908462070905    0.3645738996420175 N
   0.9784743074452046    0.0439311530867725    0.1352103449372010 N
   0.4728415669400282    0.4536806869400750    0.6303375952716198 N
   0.5225498151421354    0.4609867390244300    0.8668563137104498 N
   0.9778567484262024    0.9518859502886446    0.6339661436222821 N
   0.0220288408627757    0.9602006053885844    0.8657260614969157 N
   0.6120136590974491    0.1480448124906063    0.4737559257652521 O
   0.3912231262166955    0.1459350514599967    0.0236573082344496 O
   0.1136420802489947    0.6410110239970767    0.4783368423842592 O
   0.8876571654458650    0.6388371296416515    0.0252288246280546 O
   0.3901624233424410    0.8543723983572347    0.5223907711660364 O
   0.6096365959856217    0.8587191568853103    0.9771164537468361 O
   0.8894344306660200    0.3622103707022207    0.5243881250049632 O
   0.1119565663040861    0.3615261769459761    0.9747166215036500 O
