H96 C88 N16 O8
1.0
  14.9466859165839328    0.0000000000000000   -7.4769135584806277
  -0.0000000000000005    7.3864000000000001    0.0000000000000005
   0.0000000000000000    0.0000000000000000   17.5904999999999987
H C N O
96 88 16 8
direct
   0.2967321267046341    0.1733561876755231    0.1499492830716975 H
   0.6998291976367784    0.1673880326720585    0.3476586207636498 H
   0.7990412631318827    0.6664545019478291    0.1524777618166143 H
   0.2037701600834418    0.6728248004036734    0.3497667142252128 H
   0.6985740931391369    0.8277609016969119    0.8478923581945119 H
   0.3014517446603905    0.8223362066583285    0.6543010588736232 H
   0.2035034503759293    0.3313635763375261    0.8478601834766438 H
   0.7966237527686318    0.3222912408216849    0.6524974011206436 H
   0.4189833333545777    0.3554836414873465    0.2340721748959461 H
   0.5808391478646160    0.3629313120072280    0.2652837295290580 H
   0.9221470933362240    0.8630499826225998    0.2316124067426869 H
   0.0776582463123829    0.8635187240429031    0.2642675222183799 H
   0.5767814351361905    0.6398693426517397    0.7675531725806339 H
   0.4207443494136996    0.6336773527431658    0.7340507612683709 H
   0.0764653965767520    0.1432441526421135    0.7653081478069953 H
   0.9193613709817994    0.1368812320792002    0.7303052542072681 H
   0.7222415509466920    0.4331238838019971    0.4830168361199199 H
   0.2762551223921335    0.4345615981318564    0.0173563329721175 H
   0.2242143746806815    0.9319218593514369    0.4829118659534805 H
   0.7745200882826324    0.9409279614514493    0.0142548813095990 H
   0.2776058958214944    0.5678046481031801    0.5169278749289639 H
   0.7256041723072881    0.5690503410316511    0.9837030040920416 H
   0.7736037383081619    0.0713608103451684    0.5144655901794996 H
   0.2261888056163227    0.0706665755861402    0.9847569324099912 H
   0.7128475614629008    0.7514956783446309    0.4114682930829071 H
   0.2887967345547289    0.7615396602044637    0.0857634606243882 H
   0.2113092412438605    0.2600638446475318    0.4105332866399768 H
   0.7846505869464288    0.2560363808711674    0.0868788264889215 H
   0.2883254981338656    0.2381577912239102    0.5886822852074501 H
   0.7099588245232206    0.2449444321668812    0.9140219855806869 H
   0.7893331416571248    0.7460709775401683    0.5897353586124663 H
   0.2156209615132493    0.7441362241275240    0.9153028357724420 H
   0.6309610553448596    0.8594677901549080    0.4226729213285431 H
   0.3658691063290129    0.8535733614514354    0.0722906320514074 H
   0.1353606232858243    0.3532867827689215    0.4276493111124998 H
   0.8676661604299475    0.3614693145621563    0.0748772488436273 H
   0.3689348959248182    0.1480321893191094    0.5746639195913325 H
   0.6333874456722610    0.1389421589261184    0.9232443966465615 H
   0.8648208506642363    0.6391001181565528    0.5745280626381299 H
   0.1301494509471963    0.6469526970092346    0.9232258409718564 H
   0.6209653682209100    0.7914610403475726    0.3321863113601299 H
   0.3845866460348069    0.7923021498401376    0.1671877871044308 H
   0.1157339318157943    0.2885402369738475    0.3331873601067874 H
   0.8806422054774327    0.2900751654807646    0.1696861357012252 H
   0.3810968957299839    0.2157728104636054    0.6677344068919461 H
   0.6202866739627113    0.2113880332151372    0.8352937590847033 H
   0.8829651724156299    0.7035199401261291    0.6668824908690588 H
   0.1175703371485912    0.7139257189857594    0.8342007223847140 H
   0.3967253749524787    0.6346490619315870    0.3171940197930235 H
   0.6002644163282707    0.6332708200421255    0.1834852239163171 H
   0.9006323373521621    0.1359636871163794    0.3195383632332774 H
   0.1017712989875637    0.1455843141348473    0.1822161207516599 H
   0.6012744616444605    0.3673689801719824    0.6830822340480092 H
   0.3990000642375433    0.3619736170498212    0.8197991470926206 H
   0.1030632978476244    0.8631426762831036    0.6816827753012478 H
   0.8961123670039718    0.8594598024573820    0.8175367499739720 H
   0.4719295116192507    0.7921226173392750    0.3425806355570560 H
   0.5281823851665780    0.7922724559995524    0.1574650803889955 H
   0.9707342657477752    0.2895485258448255    0.3390745282700386 H
   0.0275878279623861    0.2934318086751965    0.1624863234753736 H
   0.5300537283642185    0.2065754116468584    0.6622607062480421 H
   0.4727533297953328    0.2050530819318943    0.8375806541935527 H
   0.0274995801795261    0.7080753494815122    0.6622323388158279 H
   0.9704107893265660    0.7098788044055240    0.8389081166368921 H
   0.4548052937332926    0.6988576306530252    0.4142172083098305 H
   0.5395390703027005    0.6938008551856153    0.0840594566025426 H
   0.9573760323369489    0.1946863716541681    0.4166838044812918 H
   0.0393813115619666    0.1975583758211168    0.0837471855798034 H
   0.5408471987515791    0.3026942803721739    0.5828494688393675 H
   0.4563767158079862    0.3070428916324088    0.9157485879416364 H
   0.0442316680566606    0.8011607631171610    0.5889608255403391 H
   0.9555647363934788    0.8049904896514777    0.9109449817912072 H
   0.4325290083510495    0.1520654695810919    0.4497872624802460 H
   0.5709504700227941    0.1409595381198771    0.0508114049860608 H
   0.9325587654177430    0.6401275968162996    0.4513647486379985 H
   0.0707017242756475    0.6493435188318717    0.0528103066342436 H
   0.5676917223399941    0.8499444312440287    0.5476976367666273 H
   0.4293051558625782    0.8520972411834096    0.9468309656628521 H
   0.0701796676178794    0.3498886308055566    0.5489927640253562 H
   0.9311235150761783    0.3484725056380366    0.9512975852310179 H
   0.3108486190143588    0.9644399484477920    0.3712409958731038 H
   0.6908449937591260    0.9616262451218613    0.1340375324810238 H
   0.8086659198062408    0.4665223465440794    0.3693914122559928 H
   0.1908204087160215    0.4620326003562678    0.1285167975057839 H
   0.6921787460816397    0.0380655892400079    0.6342719659362620 H
   0.3071705130801050    0.0360786120414613    0.8694322525382499 H
   0.1883597911351775    0.5359158981395518    0.6314158115153792 H
   0.8086785081310413    0.5360584614427475    0.8662266667757580 H
   0.2434641727742641    0.9764594825972858    0.2214781372636485 H
   0.7532911070479271    0.9669641013368625    0.2771275011774919 H
   0.7457620453793146    0.4750846012957647    0.2194922813528002 H
   0.2586406731989619    0.4726101464993290    0.2817099138602134 H
   0.7535004510901697    0.0254781342312924    0.7770959724213600 H
   0.2410708897694253    0.0292458672414407    0.7184878888326224 H
   0.2535361737470436    0.5244577307240131    0.7778540521998897 H
   0.7445802889921792    0.5314294966971371    0.7180179320694576 H
   0.5970079404080849    0.2966829687432533    0.4467177645609949 C
   0.3978462724908012    0.3044504862155882    0.0515478875413880 C
   0.1006384423320405    0.8068732962517430    0.4481922987636017 C
   0.9031856893978099    0.7981036799453197    0.0517815825844533 C
   0.3971608135286132    0.7002922841456866    0.5494019791076941 C
   0.5967888674691961    0.6960860847499893    0.9473832240527363 C
   0.8998049822514501    0.2005626261297276    0.5541605125440220 C
   0.1007696005272138    0.1937978655655241    0.9475924315683363 C
   0.3255170316873175    0.1712071450230565    0.2151884907946930 C
   0.6738673978853820    0.1670021078409533    0.2895754769621569 C
   0.8269762934346173    0.6623285667388393    0.2155300120496540 C
   0.1729171931862900    0.6622253015693926    0.2881503228115407 C
   0.6724816180904993    0.8388558833441903    0.7854114179729794 C
   0.3293207041851474    0.8310991145631021    0.7150434286793150 C
   0.1752243443608918    0.3390945793294177    0.7870719647404257 C
   0.8241834045607852    0.3375653906119687    0.7136805976942119 C
   0.3973721171713845    0.2717846116214610    0.2611062015072315 C
   0.6007899018381242    0.2717413170557136    0.2399011992927372 C
   0.8994973038064843    0.7729427314687775    0.2628364663714700 C
   0.1026093670486823    0.7770072297578139    0.2370518432772731 C
   0.6028162616631721    0.7205971645955338    0.7424078817591611 C
   0.3961696835781215    0.7232970875450423    0.7576679923992230 C
   0.0996147908167067    0.2187701047261771    0.7402657500423467 C
   0.9004313443612881    0.2273791598821051    0.7612223146854946 C
   0.6588268912941440    0.4372972490148270    0.4524919880112674 C
   0.3396133897518273    0.4457140603757070    0.0478903018314202 C
   0.1641441491755601    0.9385410849479098    0.4535580693956626 C
   0.8373347498617598    0.9342518351323440    0.0457286726945250 C
   0.3375282894960905    0.5544016853371702    0.5472800664868301 C
   0.6603217018723401    0.5592073579799895    0.9510261574394534 C
   0.8361047142020150    0.0642203620636374    0.5454060327038952 C
   0.1647678942343752    0.0597000651872643    0.9565786988041144 C
   0.6116437461844205    0.5822610367853610    0.4051023262459963 C
   0.3866355915886442    0.5816207490415478    0.0959929858849842 C
   0.1157233521069646    0.0813831579137634    0.4101252143026031 C
   0.8835347586666414    0.0771193935700158    0.0922399965205229 C
   0.3855387697963616    0.4210959316336150    0.5952766363731374 C
   0.6115674383388043    0.4174099732366198    0.9060406108322164 C
   0.8850598490990597    0.9215033971981640    0.5949555468334301 C
   0.1132622116456273    0.9118620231781133    0.9051266069246683 C
   0.6442555438341139    0.7612489203046855    0.3926221676835691 C
   0.3519134789337409    0.7557762360851664    0.1052429591803880 C
   0.1480702211023566    0.2603791860309119    0.3906686977292730 C
   0.8544574385653546    0.2606107532496397    0.1099578454844221 C
   0.3536410524909476    0.2333346186190741    0.6056664078260633 C
   0.6480457614324522    0.2321958690495734    0.8923745467528592 C
   0.8550170832361089    0.7428652109410614    0.6075065267614077 C
   0.1486782660859754    0.7338425040918696    0.8918434339177277 C
   0.4609012995541704    0.6770749978398811    0.3605860377522987 C
   0.5430796666646570    0.6797452915101241    0.1387921778383389 C
   0.9599677410347285    0.1773389152568297    0.3617432402803062 C
   0.0442641496011420    0.1850200289987591    0.1418301276884898 C
   0.5420284527006562    0.3158361331857613    0.6432581905276463 C
   0.4554611291097515    0.3215747875742709    0.8560082538322153 C
   0.0437678418503532    0.8255624407441627    0.6408503542393670 C
   0.9600420853458846    0.8252703997871875    0.8595071985791117 C
   0.4402951805943092    0.2676955170701253    0.3477451753441178 C
   0.5598978122772166    0.2690271190765466    0.1481098626498650 C
   0.9401221231021788    0.7631847041799242    0.3492672202399388 C
   0.0624155812511645    0.7667387598345328    0.1486171390310975 C
   0.5642160362942713    0.7354106303968967    0.6506610061366633 C
   0.4388593331112507    0.7357751640730625    0.8513289336020987 C
   0.0638390275482340    0.2342631213844159    0.6498426253407437 C
   0.9401776498424889    0.2301556673661236    0.8476909258028205 C
   0.4014454774154110    0.1493466555027170    0.3878929604168501 C
   0.5952118738014306    0.1469926734650736    0.1127987086274403 C
   0.9028099626992765    0.6453389175739718    0.3882349183350924 C
   0.0968505043339837    0.6501864802974677    0.1136540860832095 C
   0.5979902361434366    0.8514679116083861    0.6102409341054507 C
   0.4070161211289572    0.8501983363119123    0.8925012485973300 C
   0.0937586398109559    0.3544772226994184    0.6110328008190100 C
   0.9063310855493086    0.3512156779258991    0.8878719600341386 C
   0.3332682103051006    0.0371174014462208    0.3394211392742401 C
   0.6664080676847043    0.0461460287513101    0.1595744782107154 C
   0.8341186875980108    0.5360675337689844    0.3406911402710100 C
   0.1682257931409994    0.5360227684830826    0.1570166120622529 C
   0.6662914491200651    0.9558817156816902    0.6559685949093689 C
   0.3315277966783933    0.9628050396849100    0.8386163051845736 C
   0.1681481169240902    0.4637978823396774    0.6609828625904902 C
   0.8323041232530026    0.4636729612098505    0.8433829808001578 C
   0.2943742889724916    0.0430468313787793    0.2518002371678567 C
   0.7054359071548123    0.0530002117967979    0.2474442796470623 C
   0.7931416753195383    0.5428144854287462    0.2552597452470685 C
   0.2084450785731637    0.5419052955806603    0.2468602904794841 C
   0.7073981046988403    0.9541830120243998    0.7497052597270233 C
   0.2945969013011419    0.9520527509883743    0.7564446522031835 C
   0.2077350561700229    0.4460630930738025    0.7471757842931355 C
   0.7954105032491949    0.4531122755496021    0.7519867670321616 C
   0.5152130405506371    0.3815885982728319    0.3998259252155586 N
   0.4854520895518139    0.3765486184547338    0.0982474653431623 N
   0.0178939949135072    0.8749738432531664    0.3996182841646448 N
   0.9823611975666181    0.8724571763415202    0.1004655878745458 N
   0.4881025498708507    0.6286942634587807    0.6019677776001273 N
   0.5154702050532298    0.6302612040454781    0.8977407998216645 N
   0.9839099512761306    0.1193041316482831    0.6013624593242111 N
   0.0173559117718347    0.1284267541714102    0.8992882918708263 N
   0.5225804062009188    0.5402415147569644    0.3676708345102925 N
   0.4779949688890014    0.5399425754978204    0.1338170681828096 N
   0.0252651909453954    0.0477810533322495    0.3649668747097505 N
   0.9732487191079049    0.0489627109221753    0.1327939052426829 N
   0.4760397301281813    0.4627565344278525    0.6330883575568049 N
   0.5239966319007177    0.4531565139520869    0.8691481248665534 N
   0.9761254164623536    0.9499855846187457    0.6342502201026193 N
   0.0246296756732504    0.9536840917571848    0.8695909934587539 N
   0.6093819218671942    0.1439823124827485    0.4772248439500797 O
   0.3873603248195626    0.1493074170099725    0.0252716258767288 O
   0.1139034053554598    0.6420262435120202    0.4784828767684052 O
   0.8913594556290459    0.6469083197405234    0.0265663483734011 O
   0.3887837399963592    0.8533526287377322    0.5269319854752059 O
   0.6101631559949944    0.8592271526904485    0.9731092726477786 O
   0.8855564112922003    0.3579524681064640    0.5222434670835623 O
   0.1082870703231767    0.3537427758346345    0.9751838238820812 O
