H192 C176 N32 O16
1.0
  29.8933718331678655    0.0000000000000000  -14.9538271169612553
  -0.0000000000000005    7.3864000000000001    0.0000000000000005
   0.0000000000000000    0.0000000000000000   17.5904999999999987
H C N O
192 176 32 16
direct
   0.1495000000000000    0.1731000000000000    0.1530000000000000 H
   0.6495000000000001    0.1731000000000000    0.1530000000000000 H
   0.3505000000000001    0.1731000000000000    0.3470000000000000 H
   0.8505000000000001    0.1731000000000000    0.3470000000000002 H
   0.3995000000000000    0.6731000000000000    0.1530000000000001 H
   0.8995000000000000    0.6731000000000000    0.1530000000000001 H
   0.1005000000000000    0.6731000000000000    0.3470000000000000 H
   0.6005000000000000    0.6731000000000000    0.3470000000000001 H
   0.3505000000000001    0.8269000000000001    0.8470000000000001 H
   0.8505000000000001    0.8269000000000001    0.8470000000000002 H
   0.1495000000000000    0.8269000000000001    0.6530000000000001 H
   0.6495000000000001    0.8269000000000001    0.6530000000000001 H
   0.1005000000000000    0.3269000000000000    0.8470000000000001 H
   0.6005000000000000    0.3269000000000000    0.8470000000000001 H
   0.3995000000000000    0.3269000000000000    0.6530000000000000 H
   0.8995000000000000    0.3269000000000000    0.6530000000000001 H
   0.2103000000000000    0.3599000000000000    0.2331000000000000 H
   0.7103000000000000    0.3599000000000000    0.2331000000000001 H
   0.2897000000000001    0.3599000000000000    0.2669000000000001 H
   0.7897000000000001    0.3599000000000000    0.2669000000000001 H
   0.4603000000000000    0.8599000000000001    0.2331000000000001 H
   0.9603000000000000    0.8599000000000001    0.2331000000000001 H
   0.0397000000000000    0.8599000000000001    0.2669000000000000 H
   0.5397000000000001    0.8599000000000001    0.2669000000000001 H
   0.2897000000000001    0.6401000000000000    0.7669000000000001 H
   0.7897000000000001    0.6401000000000000    0.7669000000000001 H
   0.2103000000000000    0.6401000000000000    0.7331000000000001 H
   0.7103000000000000    0.6401000000000000    0.7331000000000002 H
   0.0397000000000000    0.1401000000000000    0.7669000000000000 H
   0.5397000000000001    0.1401000000000000    0.7669000000000001 H
   0.4603000000000000    0.1401000000000000    0.7331000000000001 H
   0.9603000000000000    0.1401000000000000    0.7331000000000001 H
   0.3624500000000000    0.4343000000000000    0.4858000000000001 H
   0.8624500000000000    0.4343000000000000    0.4858000000000001 H
   0.1375500000000000    0.4343000000000000    0.0142000000000000 H
   0.6375500000000001    0.4343000000000000    0.0142000000000001 H
   0.1124500000000000    0.9343000000000001    0.4858000000000001 H
   0.6124499999999999    0.9343000000000001    0.4858000000000001 H
   0.3875500000000001    0.9343000000000001    0.0142000000000000 H
   0.8875500000000001    0.9343000000000001    0.0142000000000002 H
   0.1375500000000000    0.5657000000000001    0.5142000000000000 H
   0.6375500000000001    0.5657000000000001    0.5142000000000002 H
   0.3624500000000000    0.5657000000000001    0.9858000000000000 H
   0.8624500000000000    0.5657000000000001    0.9858000000000001 H
   0.3875500000000001    0.0657000000000000    0.5142000000000001 H
   0.8875500000000001    0.0657000000000000    0.5142000000000002 H
   0.1124500000000000    0.0657000000000000    0.9858000000000001 H
   0.6124499999999999    0.0657000000000000    0.9858000000000000 H
   0.3562000000000000    0.7564000000000000    0.4132000000000001 H
   0.8562000000000002    0.7564000000000000    0.4132000000000001 H
   0.1438000000000000    0.7564000000000000    0.0868000000000000 H
   0.6438000000000000    0.7564000000000000    0.0868000000000000 H
   0.1062000000000001    0.2564000000000000    0.4132000000000001 H
   0.6062000000000002    0.2564000000000000    0.4132000000000001 H
   0.3938000000000000    0.2564000000000000    0.0868000000000000 H
   0.8938000000000000    0.2564000000000000    0.0868000000000001 H
   0.1438000000000000    0.2436000000000001    0.5868000000000001 H
   0.6438000000000000    0.2436000000000001    0.5868000000000001 H
   0.3562000000000000    0.2436000000000001    0.9132000000000000 H
   0.8562000000000002    0.2436000000000001    0.9132000000000001 H
   0.3938000000000000    0.7436000000000001    0.5868000000000000 H
   0.8938000000000000    0.7436000000000001    0.5868000000000000 H
   0.1062000000000001    0.7436000000000001    0.9132000000000000 H
   0.6062000000000002    0.7436000000000001    0.9132000000000001 H
   0.3166500000000000    0.8552999999999999    0.4247000000000001 H
   0.8166500000000001    0.8552999999999999    0.4247000000000002 H
   0.1833500000000000    0.8552999999999999    0.0753000000000000 H
   0.6833500000000001    0.8552999999999999    0.0753000000000002 H
   0.0666500000000000    0.3553000000000000    0.4247000000000000 H
   0.5666500000000001    0.3553000000000000    0.4247000000000001 H
   0.4333500000000001    0.3553000000000000    0.0753000000000001 H
   0.9333500000000001    0.3553000000000000    0.0753000000000001 H
   0.1833500000000000    0.1447000000000001    0.5752999999999999 H
   0.6833500000000001    0.1447000000000001    0.5753000000000001 H
   0.3166500000000000    0.1447000000000001    0.9247000000000002 H
   0.8166500000000001    0.1447000000000001    0.9247000000000003 H
   0.4333500000000001    0.6447000000000002    0.5753000000000000 H
   0.9333500000000001    0.6447000000000002    0.5753000000000001 H
   0.0666500000000000    0.6447000000000002    0.9247000000000002 H
   0.5666500000000001    0.6447000000000002    0.9247000000000003 H
   0.3090500000000000    0.7907000000000001    0.3324000000000001 H
   0.8090500000000000    0.7907000000000001    0.3324000000000001 H
   0.1909500000000000    0.7907000000000001    0.1676000000000001 H
   0.6909500000000001    0.7907000000000001    0.1676000000000001 H
   0.0590500000000001    0.2907000000000000    0.3324000000000000 H
   0.5590500000000000    0.2907000000000000    0.3324000000000000 H
   0.4409500000000001    0.2907000000000000    0.1676000000000001 H
   0.9409500000000002    0.2907000000000000    0.1676000000000002 H
   0.1909500000000000    0.2093000000000001    0.6676000000000001 H
   0.6909500000000001    0.2093000000000001    0.6676000000000001 H
   0.3090500000000000    0.2093000000000001    0.8324000000000001 H
   0.8090500000000000    0.2093000000000001    0.8324000000000001 H
   0.4409500000000001    0.7093000000000002    0.6676000000000001 H
   0.9409500000000002    0.7093000000000002    0.6676000000000002 H
   0.0590500000000001    0.7093000000000002    0.8324000000000000 H
   0.5590500000000000    0.7093000000000002    0.8324000000000000 H
   0.1993500000000000    0.6394000000000000    0.3169000000000001 H
   0.6993500000000000    0.6394000000000000    0.3169000000000001 H
   0.3006500000000000    0.6394000000000000    0.1831000000000000 H
   0.8006500000000001    0.6394000000000000    0.1831000000000001 H
   0.4493500000000001    0.1394000000000000    0.3169000000000001 H
   0.9493500000000000    0.1394000000000000    0.3169000000000000 H
   0.0506500000000000    0.1394000000000000    0.1831000000000000 H
   0.5506500000000000    0.1394000000000000    0.1831000000000000 H
   0.3006500000000000    0.3606000000000001    0.6831000000000002 H
   0.8006500000000001    0.3606000000000001    0.6831000000000002 H
   0.1993500000000000    0.3606000000000001    0.8169000000000000 H
   0.6993500000000000    0.3606000000000001    0.8169000000000000 H
   0.0506500000000000    0.8606000000000001    0.6831000000000000 H
   0.5506500000000000    0.8606000000000001    0.6831000000000002 H
   0.4493500000000001    0.8606000000000001    0.8169000000000001 H
   0.9493500000000000    0.8606000000000001    0.8169000000000000 H
   0.2363500000000000    0.7949000000000002    0.3404000000000000 H
   0.7363500000000001    0.7949000000000002    0.3404000000000000 H
   0.2636500000000000    0.7949000000000002    0.1596000000000001 H
   0.7636500000000001    0.7949000000000002    0.1596000000000001 H
   0.4863500000000000    0.2949000000000002    0.3404000000000000 H
   0.9863500000000001    0.2949000000000002    0.3404000000000000 H
   0.0136500000000000    0.2949000000000002    0.1596000000000000 H
   0.5136500000000001    0.2949000000000002    0.1596000000000001 H
   0.2636500000000000    0.2051000000000000    0.6596000000000000 H
   0.7636500000000001    0.2051000000000000    0.6596000000000001 H
   0.2363500000000000    0.2051000000000000    0.8404000000000001 H
   0.7363500000000001    0.2051000000000000    0.8404000000000000 H
   0.0136500000000000    0.7050999999999999    0.6596000000000001 H
   0.5136500000000001    0.7050999999999999    0.6596000000000001 H
   0.4863500000000000    0.7050999999999999    0.8404000000000001 H
   0.9863500000000001    0.7050999999999999    0.8404000000000001 H
   0.2287500000000000    0.6965000000000000    0.4140000000000000 H
   0.7287500000000001    0.6965000000000000    0.4140000000000001 H
   0.2712500000000000    0.6965000000000000    0.0860000000000001 H
   0.7712500000000000    0.6965000000000000    0.0860000000000001 H
   0.4787500000000001    0.1964999999999999    0.4140000000000000 H
   0.9787500000000001    0.1964999999999999    0.4140000000000001 H
   0.0212500000000000    0.1964999999999999    0.0860000000000000 H
   0.5212500000000001    0.1964999999999999    0.0860000000000001 H
   0.2712500000000000    0.3035000000000000    0.5860000000000002 H
   0.7712500000000000    0.3035000000000000    0.5860000000000002 H
   0.2287500000000000    0.3035000000000000    0.9139999999999999 H
   0.7287500000000001    0.3035000000000000    0.9140000000000000 H
   0.0212500000000000    0.8035000000000001    0.5860000000000001 H
   0.5212500000000001    0.8035000000000001    0.5860000000000002 H
   0.4787500000000001    0.8035000000000001    0.9140000000000000 H
   0.9787500000000001    0.8035000000000001    0.9140000000000001 H
   0.2156500000000000    0.1459000000000000    0.4498000000000000 H
   0.7156500000000001    0.1459000000000000    0.4498000000000001 H
   0.2843500000000000    0.1459000000000000    0.0502000000000001 H
   0.7843500000000001    0.1459000000000000    0.0502000000000001 H
   0.4656500000000001    0.6459000000000000    0.4498000000000000 H
   0.9656500000000001    0.6459000000000000    0.4498000000000001 H
   0.0343500000000000    0.6459000000000000    0.0502000000000000 H
   0.5343500000000000    0.6459000000000000    0.0502000000000001 H
   0.2843500000000000    0.8541000000000001    0.5502000000000000 H
   0.7843500000000001    0.8541000000000001    0.5502000000000001 H
   0.2156500000000000    0.8541000000000001    0.9498000000000001 H
   0.7156500000000001    0.8541000000000001    0.9498000000000002 H
   0.0343500000000000    0.3541000000000000    0.5502000000000001 H
   0.5343500000000000    0.3541000000000000    0.5502000000000001 H
   0.4656500000000001    0.3541000000000000    0.9498000000000001 H
   0.9656500000000001    0.3541000000000000    0.9498000000000002 H
   0.1546500000000001    0.9602000000000001    0.3688000000000001 H
   0.6546500000000002    0.9602000000000001    0.3688000000000001 H
   0.3453500000000000    0.9602000000000001    0.1312000000000001 H
   0.8453500000000000    0.9602000000000001    0.1312000000000001 H
   0.4046500000000000    0.4602000000000001    0.3688000000000001 H
   0.9046500000000002    0.4602000000000001    0.3688000000000001 H
   0.0953500000000000    0.4602000000000001    0.1312000000000000 H
   0.5953500000000000    0.4602000000000001    0.1312000000000000 H
   0.3453500000000000    0.0398000000000000    0.6312000000000001 H
   0.8453500000000000    0.0398000000000000    0.6312000000000001 H
   0.1546500000000000    0.0398000000000000    0.8688000000000001 H
   0.6546500000000002    0.0398000000000000    0.8688000000000001 H
   0.0953500000000000    0.5398000000000002    0.6312000000000001 H
   0.5953500000000000    0.5398000000000002    0.6312000000000001 H
   0.4046500000000000    0.5398000000000002    0.8688000000000001 H
   0.9046500000000002    0.5398000000000002    0.8688000000000001 H
   0.1221500000000000    0.9706000000000001    0.2206000000000000 H
   0.6221500000000000    0.9706000000000001    0.2206000000000000 H
   0.3778500000000000    0.9706000000000001    0.2794000000000000 H
   0.8778500000000001    0.9706000000000001    0.2794000000000000 H
   0.3721500000000000    0.4706000000000001    0.2206000000000000 H
   0.8721500000000000    0.4706000000000001    0.2206000000000000 H
   0.1278500000000000    0.4706000000000001    0.2794000000000000 H
   0.6278500000000001    0.4706000000000001    0.2794000000000001 H
   0.3778500000000000    0.0294000000000000    0.7794000000000000 H
   0.8778500000000001    0.0294000000000000    0.7794000000000001 H
   0.1221500000000000    0.0294000000000000    0.7206000000000000 H
   0.6221500000000000    0.0294000000000000    0.7206000000000000 H
   0.1278500000000000    0.5294000000000000    0.7794000000000000 H
   0.6278500000000001    0.5294000000000000    0.7794000000000001 H
   0.3721500000000000    0.5294000000000000    0.7206000000000000 H
   0.8721500000000000    0.5294000000000000    0.7206000000000000 H
   0.2998400000000001    0.3005500000000000    0.4483900000000001 C
   0.7998400000000001    0.3005500000000000    0.4483900000000001 C
   0.2001600000000000    0.3005500000000000    0.0516100000000000 C
   0.7001600000000000    0.3005500000000000    0.0516100000000000 C
   0.0498400000000000    0.8005500000000001    0.4483900000000001 C
   0.5498400000000001    0.8005500000000001    0.4483900000000002 C
   0.4501600000000001    0.8005500000000001    0.0516100000000001 C
   0.9501600000000001    0.8005500000000001    0.0516100000000002 C
   0.2001600000000000    0.6994500000000000    0.5516099999999999 C
   0.7001600000000000    0.6994500000000000    0.5516100000000000 C
   0.2998400000000001    0.6994500000000000    0.9483900000000002 C
   0.7998400000000001    0.6994500000000000    0.9483900000000003 C
   0.4501600000000001    0.1994500000000000    0.5516100000000000 C
   0.9501600000000001    0.1994500000000000    0.5516100000000002 C
   0.0498400000000000    0.1994500000000000    0.9483900000000001 C
   0.5498400000000001    0.1994500000000000    0.9483900000000002 C
   0.1630700000000000    0.1670600000000000    0.2132700000000000 C
   0.6630700000000000    0.1670600000000000    0.2132700000000000 C
   0.3369300000000001    0.1670600000000000    0.2867300000000001 C
   0.8369300000000001    0.1670600000000000    0.2867300000000002 C
   0.4130700000000000    0.6670600000000001    0.2132700000000000 C
   0.9130700000000002    0.6670600000000001    0.2132700000000001 C
   0.0869300000000000    0.6670600000000001    0.2867300000000000 C
   0.5869300000000001    0.6670600000000001    0.2867300000000001 C
   0.3369300000000001    0.8329400000000001    0.7867300000000000 C
   0.8369300000000001    0.8329400000000001    0.7867300000000002 C
   0.1630700000000000    0.8329400000000001    0.7132700000000001 C
   0.6630700000000000    0.8329400000000001    0.7132700000000001 C
   0.0869300000000000    0.3329400000000000    0.7867300000000000 C
   0.5869300000000001    0.3329400000000000    0.7867300000000002 C
   0.4130700000000000    0.3329400000000000    0.7132700000000001 C
   0.9130700000000002    0.3329400000000000    0.7132700000000002 C
   0.1991900000000000    0.2779100000000000    0.2606800000000001 C
   0.6991900000000001    0.2779100000000000    0.2606800000000001 C
   0.3008100000000000    0.2779100000000000    0.2393200000000000 C
   0.8008100000000000    0.2779100000000000    0.2393200000000000 C
   0.4491900000000000    0.7779100000000000    0.2606800000000001 C
   0.9491900000000001    0.7779100000000000    0.2606800000000002 C
   0.0508100000000000    0.7779100000000000    0.2393200000000000 C
   0.5508100000000000    0.7779100000000000    0.2393200000000000 C
   0.3008100000000000    0.7220900000000001    0.7393200000000000 C
   0.8008100000000000    0.7220900000000001    0.7393200000000001 C
   0.1991900000000000    0.7220900000000001    0.7606800000000001 C
   0.6991900000000001    0.7220900000000001    0.7606800000000002 C
   0.0508100000000000    0.2220900000000000    0.7393200000000001 C
   0.5508100000000000    0.2220900000000000    0.7393200000000001 C
   0.4491900000000000    0.2220900000000000    0.7606800000000001 C
   0.9491900000000001    0.2220900000000000    0.7606800000000002 C
   0.3308350000000000    0.4406600000000001    0.4542000000000000 C
   0.8308350000000000    0.4406600000000001    0.4542000000000000 C
   0.1691650000000000    0.4406600000000001    0.0458000000000000 C
   0.6691650000000000    0.4406600000000001    0.0458000000000000 C
   0.0808350000000000    0.9406600000000002    0.4542000000000000 C
   0.5808350000000000    0.9406600000000002    0.4542000000000002 C
   0.4191650000000001    0.9406600000000002    0.0458000000000001 C
   0.9191650000000000    0.9406600000000002    0.0458000000000000 C
   0.1691650000000000    0.5593399999999999    0.5458000000000002 C
   0.6691650000000000    0.5593399999999999    0.5458000000000001 C
   0.3308350000000000    0.5593399999999999    0.9541999999999999 C
   0.8308350000000000    0.5593399999999999    0.9541999999999999 C
   0.4191650000000001    0.0593400000000000    0.5458000000000002 C
   0.9191650000000000    0.0593400000000000    0.5458000000000001 C
   0.0808350000000000    0.0593400000000000    0.9541999999999999 C
   0.5808350000000000    0.0593400000000000    0.9542000000000000 C
   0.3074400000000000    0.5830800000000000    0.4071100000000001 C
   0.8074400000000000    0.5830800000000000    0.4071100000000001 C
   0.1925600000000000    0.5830800000000000    0.0928900000000000 C
   0.6925600000000001    0.5830800000000000    0.0928900000000001 C
   0.0574399999999999    0.0830800000000001    0.4071100000000000 C
   0.5574400000000000    0.0830800000000001    0.4071100000000001 C
   0.4425600000000000    0.0830800000000001    0.0928900000000000 C
   0.9425600000000001    0.0830800000000001    0.0928900000000001 C
   0.1925600000000000    0.4169200000000000    0.5928899999999999 C
   0.6925600000000001    0.4169200000000000    0.5928900000000000 C
   0.3074400000000000    0.4169200000000000    0.9071100000000001 C
   0.8074400000000000    0.4169200000000000    0.9071100000000001 C
   0.4425600000000000    0.9169200000000001    0.5928899999999999 C
   0.9425600000000001    0.9169200000000001    0.5928900000000001 C
   0.0574399999999999    0.9169200000000001    0.9071100000000002 C
   0.5574400000000000    0.9169200000000001    0.9071100000000002 C
   0.3237250000000000    0.7616100000000001    0.3931500000000001 C
   0.8237250000000000    0.7616100000000001    0.3931500000000001 C
   0.1762750000000000    0.7616100000000001    0.1068500000000001 C
   0.6762750000000002    0.7616100000000001    0.1068500000000001 C
   0.0737250000000001    0.2616100000000002    0.3931500000000001 C
   0.5737250000000000    0.2616100000000002    0.3931500000000001 C
   0.4262750000000000    0.2616100000000002    0.1068500000000001 C
   0.9262750000000002    0.2616100000000002    0.1068500000000001 C
   0.1762750000000000    0.2383900000000000    0.6068500000000001 C
   0.6762750000000002    0.2383900000000000    0.6068500000000002 C
   0.3237250000000000    0.2383900000000000    0.8931500000000001 C
   0.8237250000000000    0.2383900000000000    0.8931500000000001 C
   0.4262750000000000    0.7383900000000001    0.6068500000000001 C
   0.9262750000000002    0.7383900000000001    0.6068500000000001 C
   0.0737250000000001    0.7383900000000001    0.8931500000000000 C
   0.5737250000000000    0.7383900000000001    0.8931500000000001 C
   0.2289450000000000    0.6798600000000000    0.3589000000000001 C
   0.7289450000000001    0.6798600000000000    0.3589000000000001 C
   0.2710550000000000    0.6798600000000000    0.1411000000000001 C
   0.7710549999999999    0.6798600000000000    0.1411000000000000 C
   0.4789450000000000    0.1798600000000002    0.3589000000000001 C
   0.9789450000000001    0.1798600000000002    0.3589000000000001 C
   0.0210550000000000    0.1798600000000002    0.1411000000000000 C
   0.5210550000000000    0.1798600000000002    0.1411000000000001 C
   0.2710550000000000    0.3201400000000000    0.6411000000000001 C
   0.7710549999999999    0.3201400000000000    0.6411000000000000 C
   0.2289450000000000    0.3201400000000000    0.8589000000000001 C
   0.7289450000000001    0.3201400000000000    0.8589000000000001 C
   0.0210550000000000    0.8201400000000001    0.6411000000000000 C
   0.5210550000000000    0.8201400000000001    0.6411000000000000 C
   0.4789450000000000    0.8201400000000001    0.8589000000000001 C
   0.9789450000000001    0.8201400000000001    0.8589000000000001 C
   0.2189950000000000    0.2682900000000000    0.3488100000000001 C
   0.7189950000000001    0.2682900000000000    0.3488100000000001 C
   0.2810050000000000    0.2682900000000000    0.1511900000000000 C
   0.7810050000000001    0.2682900000000000    0.1511900000000000 C
   0.4689950000000000    0.7682900000000000    0.3488100000000001 C
   0.9689950000000001    0.7682900000000000    0.3488100000000001 C
   0.0310050000000000    0.7682900000000000    0.1511900000000000 C
   0.5310050000000001    0.7682900000000000    0.1511900000000000 C
   0.2810050000000000    0.7317100000000002    0.6511899999999999 C
   0.7810050000000001    0.7317100000000002    0.6511899999999999 C
   0.2189950000000000    0.7317100000000002    0.8488100000000002 C
   0.7189950000000001    0.7317100000000002    0.8488100000000002 C
   0.0310050000000000    0.2317100000000000    0.6511899999999999 C
   0.5310050000000001    0.2317100000000000    0.6511900000000000 C
   0.4689950000000000    0.2317100000000000    0.8488100000000002 C
   0.9689950000000001    0.2317100000000000    0.8488100000000002 C
   0.2023500000000000    0.1508100000000000    0.3895100000000001 C
   0.7023500000000001    0.1508100000000000    0.3895100000000001 C
   0.2976500000000000    0.1508100000000000    0.1104900000000000 C
   0.7976500000000001    0.1508100000000000    0.1104900000000002 C
   0.4523500000000000    0.6508100000000001    0.3895100000000000 C
   0.9523500000000001    0.6508100000000001    0.3895100000000001 C
   0.0476500000000000    0.6508100000000001    0.1104900000000000 C
   0.5476500000000001    0.6508100000000001    0.1104900000000001 C
   0.2976500000000000    0.8491900000000000    0.6104900000000000 C
   0.7976500000000001    0.8491900000000000    0.6104900000000002 C
   0.2023500000000000    0.8491900000000000    0.8895100000000001 C
   0.7023500000000001    0.8491900000000000    0.8895100000000002 C
   0.0476500000000000    0.3491900000000001    0.6104900000000000 C
   0.5476500000000001    0.3491900000000001    0.6104900000000001 C
   0.4523500000000000    0.3491900000000001    0.8895100000000000 C
   0.9523500000000001    0.3491900000000001    0.8895100000000001 C
   0.1661600000000000    0.0408100000000000    0.3412600000000000 C
   0.6661600000000001    0.0408100000000000    0.3412600000000001 C
   0.3338400000000001    0.0408100000000000    0.1587400000000000 C
   0.8338400000000001    0.0408100000000000    0.1587400000000000 C
   0.4161600000000000    0.5408100000000001    0.3412600000000001 C
   0.9161600000000001    0.5408100000000001    0.3412600000000001 C
   0.0838400000000000    0.5408100000000001    0.1587400000000000 C
   0.5838400000000000    0.5408100000000001    0.1587400000000000 C
   0.3338400000000001    0.9591900000000001    0.6587400000000001 C
   0.8338400000000001    0.9591900000000001    0.6587400000000001 C
   0.1661600000000000    0.9591900000000001    0.8412600000000001 C
   0.6661600000000001    0.9591900000000001    0.8412600000000001 C
   0.0838400000000000    0.4591900000000000    0.6587400000000001 C
   0.5838400000000001    0.4591900000000000    0.6587400000000002 C
   0.4161600000000000    0.4591900000000000    0.8412600000000001 C
   0.9161600000000001    0.4591900000000000    0.8412600000000001 C
   0.1466500000000000    0.0475000000000000    0.2532800000000001 C
   0.6466500000000001    0.0475000000000000    0.2532800000000001 C
   0.3533500000000001    0.0475000000000000    0.2467200000000001 C
   0.8533500000000002    0.0475000000000000    0.2467200000000002 C
   0.3966500000000001    0.5475000000000001    0.2532800000000001 C
   0.8966500000000001    0.5475000000000001    0.2532800000000001 C
   0.1033500000000000    0.5475000000000001    0.2467200000000000 C
   0.6033500000000001    0.5475000000000001    0.2467200000000001 C
   0.3533500000000001    0.9525000000000001    0.7467200000000002 C
   0.8533500000000002    0.9525000000000001    0.7467200000000003 C
   0.1466500000000001    0.9525000000000001    0.7532799999999999 C
   0.6466500000000001    0.9525000000000001    0.7532800000000001 C
   0.1033500000000000    0.4525000000000001    0.7467200000000001 C
   0.6033500000000001    0.4525000000000001    0.7467200000000002 C
   0.3966500000000001    0.4525000000000001    0.7532800000000001 C
   0.8966500000000001    0.4525000000000001    0.7532800000000001 C
   0.2573400000000000    0.3750400000000000    0.3990400000000001 N
   0.7573400000000000    0.3750400000000000    0.3990400000000001 N
   0.2426600000000000    0.3750400000000000    0.1009600000000000 N
   0.7426600000000000    0.3750400000000000    0.1009600000000000 N
   0.0073400000000000    0.8750400000000002    0.3990400000000000 N
   0.5073400000000001    0.8750400000000002    0.3990400000000001 N
   0.4926600000000000    0.8750400000000002    0.1009600000000000 N
   0.9926600000000000    0.8750400000000002    0.1009600000000000 N
   0.2426600000000000    0.6249600000000000    0.6009600000000000 N
   0.7426600000000000    0.6249600000000000    0.6009600000000000 N
   0.2573400000000000    0.6249600000000000    0.8990400000000002 N
   0.7573400000000000    0.6249600000000000    0.8990400000000003 N
   0.4926600000000000    0.1249600000000000    0.6009599999999999 N
   0.9926600000000000    0.1249600000000000    0.6009600000000000 N
   0.0073400000000000    0.1249600000000000    0.8990400000000001 N
   0.5073400000000001    0.1249600000000000    0.8990400000000002 N
   0.2623600000000000    0.5438100000000000    0.3669900000000000 N
   0.7623600000000000    0.5438100000000000    0.3669900000000001 N
   0.2376400000000000    0.5438100000000000    0.1330100000000001 N
   0.7376400000000001    0.5438100000000000    0.1330100000000001 N
   0.0123599999999999    0.0438100000000001    0.3669900000000000 N
   0.5123599999999999    0.0438100000000001    0.3669900000000000 N
   0.4876400000000001    0.0438100000000001    0.1330100000000001 N
   0.9876400000000001    0.0438100000000001    0.1330100000000001 N
   0.2376400000000000    0.4561900000000000    0.6330100000000001 N
   0.7376400000000001    0.4561900000000000    0.6330100000000002 N
   0.2623600000000000    0.4561900000000000    0.8669900000000000 N
   0.7623600000000000    0.4561900000000000    0.8669900000000000 N
   0.4876400000000001    0.9561900000000001    0.6330100000000002 N
   0.9876400000000001    0.9561900000000001    0.6330100000000002 N
   0.0123599999999999    0.9561900000000001    0.8669899999999999 N
   0.5123599999999999    0.9561900000000001    0.8669900000000000 N
   0.3056950000000001    0.1443400000000000    0.4758100000000001 O
   0.8056950000000002    0.1443400000000000    0.4758100000000002 O
   0.1943050000000000    0.1443400000000000    0.0241900000000000 O
   0.6943050000000001    0.1443400000000000    0.0241900000000002 O
   0.0556950000000001    0.6443400000000001    0.4758100000000000 O
   0.5556950000000002    0.6443400000000001    0.4758100000000001 O
   0.4443050000000001    0.6443400000000001    0.0241900000000000 O
   0.9443050000000001    0.6443400000000001    0.0241900000000001 O
   0.1943050000000000    0.8556600000000000    0.5241900000000000 O
   0.6943050000000001    0.8556600000000000    0.5241900000000000 O
   0.3056950000000001    0.8556600000000000    0.9758100000000002 O
   0.8056950000000002    0.8556600000000000    0.9758100000000002 O
   0.4443050000000001    0.3556600000000000    0.5241900000000000 O
   0.9443050000000001    0.3556600000000000    0.5241900000000000 O
   0.0556950000000001    0.3556600000000000    0.9758100000000001 O
   0.5556950000000002    0.3556600000000000    0.9758100000000001 O
