H96 C88 N16 O8
1.0
  14.9466859165839328    0.0000000000000000   -7.4769135584806277
  -0.0000000000000005    7.3864000000000001    0.0000000000000005
   0.0000000000000000    0.0000000000000000   17.5904999999999987
H C N O
96 88 16 8
direct
   0.3012333528674625    0.1680659800536969    0.1540493435218819 H
   0.7040530259569372    0.1706369882796402    0.3488269954548656 H
   0.8004830780640942    0.6786318787976067    0.1546771260288644 H
   0.2000279677389680    0.6780832040347207    0.3448493648517043 H
   0.7003270083295600    0.8335285700369993    0.8466417936975286 H
   0.2973134154900112    0.8212307047726473    0.6528818916362286 H
   0.2037965597030170    0.3288868637830016    0.8495066026640236 H
   0.8009497613651443    0.3244212878988670    0.6558906568030864 H
   0.4220383933100492    0.3656765205232337    0.2345493170832967 H
   0.5802011379532495    0.3661013499774317    0.2681544634293458 H
   0.9220137357513011    0.8647178782097982    0.2352958024204326 H
   0.0789031543388026    0.8610513913947446    0.2694578395744818 H
   0.5826347770630182    0.6415608414864115    0.7686602013934053 H
   0.4220993211165394    0.6351739591943465    0.7322615442693037 H
   0.0786736820472110    0.1458204732717784    0.7679800304530047 H
   0.9209708663017520    0.1455019792095703    0.7315739435084226 H
   0.7269602877328691    0.4292329793531945    0.4859773551843951 H
   0.2755971795002634    0.4278237967518857    0.0137001239182143 H
   0.2245435082303761    0.9276563033438532    0.4851956425988213 H
   0.7760185590073742    0.9278242485893593    0.0148663510894210 H
   0.2761916677153495    0.5674113874852905    0.5172529622007406 H
   0.7279821227036114    0.5631806328701384    0.9867910725097486 H
   0.7723460956851163    0.0664991956547900    0.5114510655460692 H
   0.2263147350982740    0.0657376165799442    0.9889770294970543 H
   0.7132393689029958    0.7498479136505863    0.4135926642131388 H
   0.2847564217622646    0.7594014459529339    0.0847832105466333 H
   0.2102403042545944    0.2586031290872713    0.4142456993270480 H
   0.7874139701503778    0.2544955473500871    0.0894439742230281 H
   0.2900159930345773    0.2462260852326678    0.5861992885202839 H
   0.7125831298574500    0.2377370137672299    0.9118656669981328 H
   0.7907288853276466    0.7412781540633655    0.5878836363242417 H
   0.2117977214016104    0.7501292487197879    0.9123955997571598 H
   0.6318185380808382    0.8494828132270150    0.4247970642580692 H
   0.3681488776219479    0.8523689059750469    0.0736688545588426 H
   0.1328143268811117    0.3587737377030090    0.4268980410307675 H
   0.8647487567328290    0.3578849239470659    0.0724328625403703 H
   0.3697992839918269    0.1460701948062747    0.5757155351673314 H
   0.6365760090648924    0.1436867639751356    0.9264795927966080 H
   0.8641196759595885    0.6490068481487924    0.5741609093716215 H
   0.1300237829099943    0.6437052884902948    0.9237016767501779 H
   0.6200763474870639    0.7867745935444063    0.3348345709479936 H
   0.3817944875246030    0.7840357965335242    0.1680457153356599 H
   0.1204496486843027    0.2924584033564996    0.3315150404514012 H
   0.8850922349750302    0.2922516194161222    0.1684113424990047 H
   0.3850848183159915    0.2079575163997840    0.6696158922379275 H
   0.6160622527413946    0.2146620976528814    0.8314251792835681 H
   0.8800241343524379    0.7148441366106472    0.6664574640259077 H
   0.1165341187497067    0.7054708032174714    0.8336641270508556 H
   0.4011123162616542    0.6355501647037900    0.3168007840850037 H
   0.6027575981632129    0.6366000998495677    0.1859918403787049 H
   0.9012314742616414    0.1415431411243691    0.3163503365603642 H
   0.0991916455292421    0.1442819660405804    0.1830209607917991 H
   0.5983658392025366    0.3625464345734371    0.6807593860043093 H
   0.4002336508009210    0.3611636201025312    0.8200668957581949 H
   0.0993455307692249    0.8551792509013548    0.6826438562303238 H
   0.9011595707050799    0.8571931009815935    0.8192358830062849 H
   0.4695389894550961    0.7967061849937533    0.3395950198687196 H
   0.5245705057489338    0.7916543317856937    0.1575216241514788 H
   0.9724574689426366    0.2977653399408171    0.3377299339199846 H
   0.0255684788560298    0.2901111349425263    0.1602319166731055 H
   0.5305303834484493    0.2038923945378307    0.6615098119599363 H
   0.4739226827255824    0.2092480852118609    0.8389281706584908 H
   0.0241246989508152    0.7067450256466175    0.6588184854925265 H
   0.9724840925017210    0.6989109038210561    0.8391716599799379 H
   0.4572430046235738    0.6956373348086895    0.4167015602710212 H
   0.5395488987169189    0.6965128425661141    0.0834071111529603 H
   0.9582307591655691    0.1933594997134416    0.4167508792778927 H
   0.0410534288796749    0.1945061549438989    0.0829627944299637 H
   0.5447461000364013    0.3019902539034842    0.5849459452884144 H
   0.4544032997040158    0.3054675792303748    0.9133716849929870 H
   0.0399399936701838    0.7995391955039877    0.5841491989373900 H
   0.9560420549069507    0.7988104800520850    0.9150134461639203 H
   0.4308554440278691    0.1396104301268773    0.4486303843315032 H
   0.5680743716712152    0.1399260347552621    0.0487076066781142 H
   0.9337627312519243    0.6413936787899973    0.4511931722023612 H
   0.0704655549163053    0.6515880637546790    0.0505981409427222 H
   0.5689581902722669    0.8497335011490095    0.5481488369595430 H
   0.4322176945599027    0.8547560973239002    0.9529095452901717 H
   0.0663084699403009    0.3560885933284854    0.5509870311088007 H
   0.9287795023996634    0.3567906129879150    0.9472399444642122 H
   0.3097843244039273    0.9644084844216525    0.3668178953474215 H
   0.6883547376699513    0.9650024580594090    0.1304073119111644 H
   0.8121048654856035    0.4593064343845238    0.3714950758318729 H
   0.1873635078509260    0.4606861304820039    0.1297605826930760 H
   0.6874635510025611    0.0409148258965301    0.6303699952316295 H
   0.3082384630827240    0.0335257559046902    0.8689186466352727 H
   0.1898757654574399    0.5433746895884366    0.6285397076395388 H
   0.8060503351859802    0.5412649435239563    0.8671419531059190 H
   0.2464178061276296    0.9756187445221416    0.2208676657149555 H
   0.7535526963894816    0.9726300416154878    0.2764813401341147 H
   0.7432873931600735    0.4661163236266399    0.2182216434401763 H
   0.2525806210283271    0.4682115665352841    0.2778544357600261 H
   0.7544456648712033    0.0356323297659108    0.7785589447502552 H
   0.2433143601756362    0.0229590188233612    0.7199298640353717 H
   0.2527234852966198    0.5282470952404424    0.7769312785692505 H
   0.7466485403731942    0.5331966715951083    0.7203510286817632 H
   0.5993724328725405    0.3072475632944678    0.4479402116226510 C
   0.4019899494147881    0.2957020371300610    0.0509334708700863 C
   0.0998777111340454    0.8063610856210018    0.4499221595266528 C
   0.9012246914978920    0.8068617629171637    0.0513132691290347 C
   0.4032662477535957    0.7013772375132231    0.5517864893966932 C
   0.5989164977695860    0.7058352953085039    0.9487507166154262 C
   0.8978470014353197    0.2001152078741984    0.5486651819729630 C
   0.0984488797862238    0.1952918977013738    0.9458826218632344 C
   0.3243555484231441    0.1707041029089769    0.2106570622063922 C
   0.6715939572529037    0.1717483526468586    0.2850622629633617 C
   0.8228322124315656    0.6674231025589508    0.2114683192503787 C
   0.1723026586103928    0.6615136073579283    0.2870189867561125 C
   0.6740570212194303    0.8390550765111011    0.7856062666903416 C
   0.3258215718556458    0.8300245680590843    0.7105836558548873 C
   0.1745686867518877    0.3264980054666924    0.7863991010917820 C
   0.8271537328984712    0.3387941829000176    0.7148387285859527 C
   0.3990332890831264    0.2770757527032808    0.2581920672203067 C
   0.6033733858464533    0.2732862525458774    0.2415110344110077 C
   0.8972281386503823    0.7841069481374638    0.2595984810317399 C
   0.1034990897760031    0.7758684470823679    0.2423085174766927 C
   0.6026912367794285    0.7158239452772087    0.7392027003236116 C
   0.3990182676856673    0.7176206712323152    0.7630160785646447 C
   0.1007781796235711    0.2286302171282510    0.7388018309819266 C
   0.8983320304465118    0.2154777101874952    0.7600525215515027 C
   0.6614200316203417    0.4366561807501060    0.4563758128323214 C
   0.3411859146627956    0.4429604496802095    0.0458924862218811 C
   0.1625137061336563    0.9387573420360380    0.4571905841663706 C
   0.8359898403317577    0.9406030651244447    0.0468363211540624 C
   0.3365131756976605    0.5563453498383144    0.5429991959513099 C
   0.6625359478782356    0.5580052449328194    0.9518803332893451 C
   0.8370892397738485    0.0620810990015001    0.5428970763218558 C
   0.1595908239956624    0.0609109780287074    0.9511894645740838 C
   0.6153348877117925    0.5765963263466357    0.4080229430588679 C
   0.3849827798384985    0.5866623544734005    0.0952406340452117 C
   0.1118002627763062    0.0839489698993781    0.4047529050354538 C
   0.8858726147119015    0.0826435327188248    0.0959734026105605 C
   0.3831760583798771    0.4164940026562557    0.5943700452499778 C
   0.6171966955935061    0.4164238527422248    0.9101345941635992 C
   0.8833369625570978    0.9118762122323048    0.5932716218966437 C
   0.1177368234182639    0.9204096640742222    0.9081249164906490 C
   0.6456971374904441    0.7590487140255939    0.3902359696729021 C
   0.3528374074043759    0.7661138030312606    0.1048642584451838 C
   0.1478241192572097    0.2618304503343145    0.3961321151805267 C
   0.8526828999682251    0.2553956478009478    0.1080278527300871 C
   0.3522952139220458    0.2325443005014687    0.6053249220657885 C
   0.6481518371829066    0.2449528811164743    0.8938079887260688 C
   0.8535979421709426    0.7435799294380396    0.6088883146687316 C
   0.1491585370784617    0.7421330368280729    0.8920049727112085 C
   0.4604142754985746    0.6775001713399370    0.3583927455805017 C
   0.5442882336009957    0.6770330863155845    0.1402245443622190 C
   0.9601904610714360    0.1753912625671744    0.3607365991119149 C
   0.0430468694323084    0.1748007876343926    0.1397857157589719 C
   0.5390744560805665    0.3222272575173573    0.6389982642377887 C
   0.4551812112238739    0.3181278217873266    0.8591866449853499 C
   0.0447141956105171    0.8218100363877350    0.6438474338677836 C
   0.9601703376798849    0.8152501618685986    0.8601996952571350 C
   0.4384835779943814    0.2692212472923983    0.3462357927540186 C
   0.5626225341017336    0.2616361336000615    0.1514048136074983 C
   0.9362610360865994    0.7679240891307296    0.3505035960990212 C
   0.0602187682891161    0.7663801240731214    0.1481659325088249 C
   0.5586841837454893    0.7312350401788897    0.6500080727405136 C
   0.4387708184743651    0.7264658523342168    0.8474714937967331 C
   0.0627849152520314    0.2312738071968027    0.6487603260343807 C
   0.9354312241470374    0.2343381459315661    0.8462614029410757 C
   0.4040285017097751    0.1562151401947907    0.3876113333961128 C
   0.5934507323364924    0.1557394703840342    0.1085525181052147 C
   0.9024820411719416    0.6553640956887659    0.3895004390418015 C
   0.0934480550229346    0.6531435021450310    0.1075480281993522 C
   0.5941716197175997    0.8520238723444647    0.6076136733935262 C
   0.4067789579695476    0.8495486790820286    0.8881718920299301 C
   0.0932300992172500    0.3535277768734810    0.6083185303558591 C
   0.9014540443102925    0.3475855449740892    0.8882662665126976 C
   0.3327245085424091    0.0470911413182003    0.3424343933384467 C
   0.6660877029519900    0.0461939861118449    0.1569965098059142 C
   0.8356019028327270    0.5394993072288842    0.3426629442194475 C
   0.1706507053265170    0.5415910275368749    0.1587376940210571 C
   0.6698836940451570    0.9544732531869086    0.6604832282360160 C
   0.3298982203676255    0.9589324240238829    0.8382727361571668 C
   0.1707641948438894    0.4566404341201414    0.6597949366143648 C
   0.8304215717208356    0.4538758778958497    0.8411587924754654 C
   0.2933358962518374    0.0413759249196659    0.2520846054099870 C
   0.7041919063520069    0.0431312658562681    0.2452386132688963 C
   0.7925811232368578    0.5539517868046565    0.2535800968079773 C
   0.2067357305133020    0.5529804214289977    0.2484033283071867 C
   0.7079076801137240    0.9529487860009275    0.7498773697439520 C
   0.2908029817903335    0.9497966722483312    0.7537316474373774 C
   0.2087976172032812    0.4537114443997095    0.7454566200239773 C
   0.7909931058967670    0.4533077922428224    0.7502691372729186 C
   0.5142720107823729    0.3703085103035105    0.4008695702338468 N
   0.4824252383742805    0.3719372141481402    0.0991534441208524 N
   0.0129244812228392    0.8776148851489246    0.4004583839993493 N
   0.9844698333810390    0.8749573532740723    0.1033475302517834 N
   0.4851288763008579    0.6292203142877415    0.5986758555206348 N
   0.5168518439055860    0.6291345835984330    0.9012284962267612 N
   0.9830535064025616    0.1203301719463047    0.5992278090514227 N
   0.0178761677822296    0.1236463512584368    0.9010307538844209 N
   0.5216049758019610    0.5456414369090989    0.3663604182409978 N
   0.4753780835963858    0.5373260209054930    0.1322395552411028 N
   0.0234080865314816    0.0380218135656558    0.3654682720428786 N
   0.9764636502221946    0.0455481065346639    0.1309566967097503 N
   0.4765820036569164    0.4616895758409653    0.6323294856587939 N
   0.5273573496272649    0.4579232209189109    0.8697009503582646 N
   0.9753104575302640    0.9494620801127250    0.6333352997259707 N
   0.0253433002110295    0.9510988813834801    0.8654580550631887 N
   0.6094934283578395    0.1437704916442832    0.4726746281045488 O
   0.3898206049259704    0.1496097137234883    0.0232468745438123 O
   0.1093631937170818    0.6389772304497342    0.4747419902834512 O
   0.8871048043557735    0.6391737550585884    0.0222320126066432 O
   0.3873252640645301    0.8528125884907248    0.5213076352880146 O
   0.6116224465253285    0.8530201644283958    0.9732988741097353 O
   0.8902073393199265    0.3582869736283802    0.5271096068401478 O
   0.1099580746528538    0.3515516454431966    0.9771047768588472 O
