H96 C88 N16 O8
1.0
  14.9466859165839328    0.0000000000000000   -7.4769135584806277
  -0.0000000000000005    7.3864000000000001    0.0000000000000005
   0.0000000000000000    0.0000000000000000   17.5904999999999987
H C N O
96 88 16 8
direct
   0.3102085808479237    0.1690356583855645    0.1528282242124454 H
   0.7017945803799152    0.1843795641593715    0.3503130790301640 H
   0.7976124919860104    0.6604013404115031    0.1568744144572557 H
   0.2021294437155555    0.6669527895731276    0.3443857460948992 H
   0.7037236270024833    0.8155203266555935    0.8524075377697248 H
   0.3020387214512982    0.8128138783841043    0.6553494378219037 H
   0.1976250861166370    0.3229138123297217    0.8510504358621288 H
   0.8036026822121932    0.3309467115726433    0.6553141057543851 H
   0.4185096946047164    0.3575993751461653    0.2400331224840411 H
   0.5691096337453591    0.3584843227725030    0.2632127281046044 H
   0.9175728644305187    0.8565549893613034    0.2303132842914209 H
   0.0838238127036595    0.8760030965866294    0.2686506858175770 H
   0.5793976519062536    0.6374740282598049    0.7631806077705516 H
   0.4159165105427357    0.6445410405428460    0.7352250175406775 H
   0.0743279681602946    0.1381166631766582    0.7661917338894987 H
   0.9176906027951871    0.1465686928648575    0.7324335160377442 H
   0.7238995992046755    0.4366232229425461    0.4863921264661957 H
   0.2791602007212112    0.4281005090425015    0.0112513177679048 H
   0.2242265806832124    0.9303081013136426    0.4817668208864491 H
   0.7794537156874443    0.9288586031241726    0.0161457823816194 H
   0.2733696450048034    0.5714570481711150    0.5142783557076906 H
   0.7318099694816250    0.5782987508146464    0.9843059957764138 H
   0.7770672411397948    0.0552797300268211    0.5125936103007376 H
   0.2219242199296057    0.0605620685837329    0.9844854767509087 H
   0.7113674970454488    0.7551899956814697    0.4162629165823222 H
   0.2887473688624410    0.7541208874870172    0.0834276866210557 H
   0.2143545557469795    0.2553206829589036    0.4194284233026358 H
   0.7801865254976976    0.2537566513574577    0.0752168706735307 H
   0.2838138872020315    0.2525893582120370    0.5875919031621044 H
   0.7136340194095929    0.2498858223154227    0.9164493689852814 H
   0.7823539451894282    0.7652936270045659    0.5814540610816844 H
   0.2083757041533630    0.7376222873056498    0.9082026822130201 H
   0.6292900290748592    0.8484946924410016    0.4234128427069917 H
   0.3655781085090830    0.8621767275919585    0.0732646213820305 H
   0.1241551720565764    0.3561231596088201    0.4212470733529097 H
   0.8724737814232221    0.3546867547658312    0.0780929477056478 H
   0.3609229326061941    0.1471435555182246    0.5774357632445837 H
   0.6340047683747847    0.1327069590713537    0.9247099309808862 H
   0.8590588175878384    0.6558639091532882    0.5708631436710019 H
   0.1415858316878049    0.6371479737741997    0.9309773946881383 H
   0.6179014409445466    0.7898843581380208    0.3391867731358774 H
   0.3839574326411067    0.7690233733663902    0.1662984268078967 H
   0.1084815093762197    0.2935762413722598    0.3298600611558477 H
   0.8882623055389138    0.2913620990734834    0.1717596257623173 H
   0.3858435609759356    0.2045180081234796    0.6691402941153084 H
   0.6154916977993065    0.2054437674564819    0.8395714328159547 H
   0.8794635990629459    0.7213652709849364    0.6635847293843996 H
   0.1172321247151917    0.7102869721797800    0.8368665997967010 H
   0.3983001709630724    0.6475001613620603    0.3213708256590965 H
   0.5928424668222307    0.6294795630296137    0.1763064675843604 H
   0.8990467285698428    0.1286259379989437    0.3193908100524187 H
   0.1038563025911724    0.1286751552984180    0.1855293857596976 H
   0.5956903536208331    0.3577312794958462    0.6786318275625722 H
   0.4028072035905202    0.3572417945260043    0.8207607462426206 H
   0.1082328872693564    0.8663570503677246    0.6891903273094349 H
   0.9003252362052799    0.8595338321129196    0.8217863608406738 H
   0.4777490757114283    0.7844405823298578    0.3422433824425958 H
   0.5176084043508400    0.7912947871727010    0.1546517869878844 H
   0.9670989124857532    0.2865164446141863    0.3376292800030727 H
   0.0282316911373270    0.2897792452516030    0.1587366972346290 H
   0.5290119934337725    0.2084283708657983    0.6554427024585019 H
   0.4667287374487438    0.2057019055963435    0.8379125965381815 H
   0.0272307808203586    0.7048019542256213    0.6594970798892388 H
   0.9618731361483467    0.7141094076156042    0.8375990129508161 H
   0.4543169515808039    0.7103286978221273    0.4082170343120758 H
   0.5350544836585271    0.6972835949682560    0.0869253190526913 H
   0.9598297362512421    0.1963319889990219    0.4193225453305841 H
   0.0371130645261235    0.1878997938059729    0.0865195541551612 H
   0.5393066916446811    0.3002606151454936    0.5880564152113765 H
   0.4582447177140392    0.2938698991910597    0.9067344509694059 H
   0.0413418294349467    0.8155017154178635    0.5880650341428704 H
   0.9548261033097000    0.7971211409793744    0.9140359220512714 H
   0.4341968090340620    0.1523917566364219    0.4552216666641806 H
   0.5653487020155608    0.1428541418868083    0.0490287619823121 H
   0.9311504144453641    0.6347037066421446    0.4512733348537075 H
   0.0583072329709102    0.6474723757783813    0.0450021491974272 H
   0.5683681278280494    0.8594179165159419    0.5490204542047660 H
   0.4364755299207222    0.8503979302656696    0.9530491175224020 H
   0.0678629611022549    0.3732198754152805    0.5485322336252890 H
   0.9310455491839857    0.3548595788929921    0.9528994796938536 H
   0.3130074075296351    0.9576774704004910    0.3672740862529225 H
   0.6968236651958658    0.9539149932506380    0.1313306545470999 H
   0.8112957751299849    0.4617346336885499    0.3670371154571498 H
   0.1845267473142730    0.4679131163697732    0.1285073509707859 H
   0.6895395402131698    0.0495221804209021    0.6273870477961462 H
   0.3158228450308868    0.0400927574807726    0.8687719991421129 H
   0.1964414817920367    0.5262776541818469    0.6358812264992179 H
   0.8135448140073194    0.5455173732808867    0.8738129166691881 H
   0.2380064440938084    0.9625501091573150    0.2158133328473206 H
   0.7550986811884748    0.9861736264966187    0.2755027959099645 H
   0.7396574096737984    0.4659859533291772    0.2163019797396048 H
   0.2521661490616102    0.4639993154016200    0.2798706391020212 H
   0.7533028684986246    0.0293695485682359    0.7736156640886126 H
   0.2425032593237601    0.0367321832450649    0.7188008055646747 H
   0.2551868248694917    0.5360553881249966    0.7712616952773504 H
   0.7433954905570147    0.5288925162383947    0.7247471588557637 H
   0.5980787039186686    0.2946332719566155    0.4487345118551819 C
   0.4015930579440198    0.2997583383716942    0.0430486654889229 C
   0.0936917264708035    0.8049406286687857    0.4447120788224531 C
   0.8980682016491589    0.7839428171536440    0.0554451177870073 C
   0.4008845052495436    0.6940426307497233    0.5587509223198411 C
   0.6020759856717722    0.7057216054985291    0.9550569834136569 C
   0.8997059600183127    0.2144118958473680    0.5586993013838500 C
   0.0963443125579234    0.2009897419844572    0.9482869220241368 C
   0.3207366164923416    0.1535353110557959    0.2075144445721336 C
   0.6738384157130819    0.1635825700818971    0.2907157378461222 C
   0.8266447633790742    0.6846796813965493    0.2123253854677728 C
   0.1773610158610446    0.6680644064088557    0.2926131861644754 C
   0.6670035450971779    0.8332415279961086    0.7877816329152112 C
   0.3277148418304086    0.8322850891742893    0.7157476664483656 C
   0.1761669575082766    0.3453081839518301    0.7867549826226375 C
   0.8168802024434942    0.3305870599010731    0.7150080344945494 C
   0.3923743281727039    0.2808387560340369    0.2540637736243676 C
   0.5988921271163165    0.2739795063382749    0.2398298358325029 C
   0.8990191874547978    0.7773427161833272    0.2617407375568628 C
   0.1004976102518929    0.7687067173126818    0.2387463639393831 C
   0.6052320814762997    0.7038316071041989    0.7419425430630027 C
   0.3999191450951006    0.7245767213558915    0.7652959136682878 C
   0.0976959343614817    0.2004945284008865    0.7367926103231828 C
   0.8928908590218396    0.2102859259919587    0.7616167710498201 C
   0.6666782496546491    0.4377938158336049    0.4514735264508947 C
   0.3385077751907235    0.4408527546685820    0.0437108658444376 C
   0.1530098103164316    0.9310535929864120    0.4556663335956324 C
   0.8399443442155408    0.9276454858986856    0.0459912386451346 C
   0.3366209756154868    0.5567729536469536    0.5412719108901896 C
   0.6726543190754736    0.5554229610592762    0.9619465582233674 C
   0.8320383760593598    0.0433028993028922    0.5432309371949604 C
   0.1641347455576427    0.0557225847374408    0.9599386239134374 C
   0.6197524373727633    0.5791272123377855    0.4193810941674551 C
   0.3790920117086549    0.5750459142195716    0.0877624818393443 C
   0.1099525664242884    0.0692868773353262    0.4014292538029065 C
   0.8840820794447382    0.0912707003780984    0.0882182897492898 C
   0.3886143706624414    0.4188550158244309    0.5938348087410049 C
   0.6164548490102547    0.3988851464634481    0.9120028978458532 C
   0.8914186702925415    0.9126814263724988    0.6007859382957565 C
   0.1201749727958964    0.9089640715649335    0.9114144548122690 C
   0.6493769816829620    0.7649501430107651    0.3932184086897992 C
   0.3577734683040207    0.7753791280726857    0.1132053263239451 C
   0.1481795070017665    0.2541859548644148    0.3939746627771541 C
   0.8546292459549315    0.2586288098836007    0.1026162855528692 C
   0.3475800228595236    0.2360789695696639    0.6031394961199064 C
   0.6449327420108240    0.2403065820275528    0.8940427639013712 C
   0.8598716516262344    0.7374021884599218    0.6056612603219601 C
   0.1491538109264602    0.7146231223930972    0.8882429715593921 C
   0.4577806340089630    0.6700965278273877    0.3595708948490979 C
   0.5477661913115200    0.6795693703518871    0.1476572893583150 C
   0.9581949406849314    0.1835412550703431    0.3635319880412879 C
   0.0465012746537294    0.1861320214161590    0.1401973945226513 C
   0.5407397530753627    0.3258222305956217    0.6318345639509163 C
   0.4584160576111369    0.3140996099929030    0.8595906340158259 C
   0.0389596729095560    0.8091431870152580    0.6364292742445166 C
   0.9542725843810778    0.8352309650631365    0.8581596387278264 C
   0.4395514287849272    0.2722692665997942    0.3493176033531141 C
   0.5600734261140390    0.2605993549311473    0.1514211729444591 C
   0.9368973140178001    0.7921386322277267    0.3478523199616225 C
   0.0660444185039486    0.7754516187995733    0.1551061945656562 C
   0.5585755183981842    0.7225117120355969    0.6549760285715611 C
   0.4318032528833051    0.7401012170291540    0.8446649392297124 C
   0.0563918169025464    0.2338184140310160    0.6525536662853024 C
   0.9404822425114755    0.2249124149087038    0.8417718586104380 C
   0.4062508658315739    0.1505383682539713    0.3918378751440592 C
   0.5888081638742034    0.1602328531269639    0.1092674099078680 C
   0.9051386959889592    0.6369465487301501    0.3935342147844922 C
   0.0992863376637223    0.6530312413822169    0.1027571045316182 C
   0.5989488357596349    0.8369163355156315    0.6134023787784117 C
   0.3986843526123704    0.8676782347828069    0.8890093390083201 C
   0.0977593358451775    0.3652249269301667    0.6134642326713888 C
   0.9047975317392920    0.3322889210318537    0.8856533909507895 C
   0.3347246140968000    0.0421052113476476    0.3375826910561965 C
   0.6683467684378191    0.0351306011161949    0.1639669672935658 C
   0.8310087840845055    0.5547531406452897    0.3473338452030098 C
   0.1624190070544693    0.5414398582311902    0.1585239731152828 C
   0.6740778164041353    0.9545731292952092    0.6579174488204915 C
   0.3319414244002349    0.9417440618533387    0.8383631723689622 C
   0.1660142595571529    0.4450338467109896    0.6548902063040881 C
   0.8305224791000625    0.4812392405302285    0.8395106992591352 C
   0.2898782658373033    0.0703457679930000    0.2449054295084443 C
   0.7051164996062674    0.0659532296281061    0.2524345659608659 C
   0.7872730473145011    0.5416067847575129    0.2543541743773515 C
   0.1991791722815375    0.5470432649810970    0.2440849275912373 C
   0.7142726485459576    0.9555615427043052    0.7474752949337161 C
   0.3010390196035916    0.9511504232203359    0.7581665358371762 C
   0.2122846876172892    0.4438284329910650    0.7535751519278874 C
   0.7930335473607816    0.4449414189625477    0.7507718021338640 C
   0.5117200222217659    0.3742616722422796    0.3963078657253209 N
   0.4891267160142982    0.3767075271744450    0.1067486285079283 N
   0.0081954556818553    0.8796648165070017    0.4005733188983379 N
   0.9913887165456932    0.8705190951208764    0.1068086180680276 N
   0.4798082081573020    0.6276800099688166    0.6054854933321782 N
   0.5197112657143664    0.6194877525270396    0.8915159146848221 N
   0.9900400111235711    0.1147278082853086    0.5993429683264466 N
   0.0083760399973252    0.1293082998882052    0.8962107530110139 N
   0.5340830717111230    0.5371857915781191    0.3648214575375811 N
   0.4786252722386593    0.5546634875929185    0.1375358621972669 N
   0.0265937305400821    0.0236557226998076    0.3680418942179638 N
   0.9780883955419265    0.0352319149568569    0.1356541529645646 N
   0.4758786066766515    0.4524684183022336    0.6300789819483209 N
   0.5340396424114218    0.4693673943902515    0.8793797865075975 N
   0.9792268827935248    0.9589172887460438    0.6353742370081339 N
   0.0287047759949803    0.9545052650002671    0.8716823387563242 N
   0.6048457693960101    0.1480805288222033    0.4673179530586649 O
   0.3810294668884726    0.1335142872011548    0.0252944549820796 O
   0.1195235889847662    0.6370903627504041    0.4804538293833697 O
   0.8897226024924975    0.6504795084817210    0.0185506971286506 O
   0.3911028634667758    0.8499497957447062    0.5217395134206596 O
   0.6094411794310254    0.8532506637105176    0.9753497684024511 O
   0.8977732207752728    0.3552202677710828    0.5297162176624765 O
   0.1123502788963687    0.3533709593524128    0.9780548284214182 O
