H384 C352 N64 O32
1.0
  29.8933718331678655    0.0000000000000000  -14.9538271169612553
  -0.0000000000000005    7.3864000000000001    0.0000000000000005
   0.0000000000000000    0.0000000000000000   35.1809999999999974
H C N O
384 352 64 32
direct
   0.1495000000000000    0.1731000000000000    0.0765000000000000 H
   0.1495000000000000    0.1731000000000000    0.5765000000000001 H
   0.6495000000000001    0.1731000000000000    0.0765000000000000 H
   0.6495000000000001    0.1731000000000000    0.5765000000000000 H
   0.3505000000000001    0.1731000000000000    0.1735000000000000 H
   0.3505000000000001    0.1731000000000000    0.6735000000000000 H
   0.8505000000000001    0.1731000000000000    0.1735000000000001 H
   0.8505000000000001    0.1731000000000000    0.6735000000000001 H
   0.3995000000000000    0.6731000000000000    0.0765000000000000 H
   0.3995000000000000    0.6731000000000000    0.5765000000000000 H
   0.8995000000000000    0.6731000000000000    0.0765000000000000 H
   0.8995000000000000    0.6731000000000000    0.5765000000000000 H
   0.1005000000000000    0.6731000000000000    0.1735000000000000 H
   0.1005000000000000    0.6731000000000000    0.6735000000000000 H
   0.6005000000000000    0.6731000000000000    0.1735000000000000 H
   0.6005000000000000    0.6731000000000000    0.6735000000000001 H
   0.3505000000000001    0.8269000000000001    0.4235000000000000 H
   0.3505000000000001    0.8269000000000001    0.9235000000000001 H
   0.8505000000000001    0.8269000000000001    0.4235000000000001 H
   0.8505000000000001    0.8269000000000001    0.9235000000000001 H
   0.1495000000000000    0.8269000000000001    0.3265000000000001 H
   0.1495000000000000    0.8269000000000001    0.8265000000000001 H
   0.6495000000000001    0.8269000000000001    0.3265000000000001 H
   0.6495000000000001    0.8269000000000001    0.8265000000000001 H
   0.1005000000000000    0.3269000000000000    0.4235000000000000 H
   0.1005000000000000    0.3269000000000000    0.9235000000000000 H
   0.6005000000000000    0.3269000000000000    0.4235000000000000 H
   0.6005000000000000    0.3269000000000000    0.9235000000000001 H
   0.3995000000000000    0.3269000000000000    0.3265000000000000 H
   0.3995000000000000    0.3269000000000000    0.8265000000000000 H
   0.8995000000000000    0.3269000000000000    0.3265000000000001 H
   0.8995000000000000    0.3269000000000000    0.8265000000000000 H
   0.2103000000000000    0.3599000000000000    0.1165500000000000 H
   0.2103000000000000    0.3599000000000000    0.6165500000000000 H
   0.7103000000000000    0.3599000000000000    0.1165500000000001 H
   0.7103000000000000    0.3599000000000000    0.6165500000000000 H
   0.2897000000000001    0.3599000000000000    0.1334500000000000 H
   0.2897000000000001    0.3599000000000000    0.6334500000000000 H
   0.7897000000000001    0.3599000000000000    0.1334500000000001 H
   0.7897000000000001    0.3599000000000000    0.6334500000000001 H
   0.4603000000000000    0.8599000000000001    0.1165500000000000 H
   0.4603000000000000    0.8599000000000001    0.6165500000000000 H
   0.9603000000000000    0.8599000000000001    0.1165500000000000 H
   0.9603000000000000    0.8599000000000001    0.6165500000000000 H
   0.0397000000000000    0.8599000000000001    0.1334500000000000 H
   0.0397000000000000    0.8599000000000001    0.6334500000000001 H
   0.5397000000000001    0.8599000000000001    0.1334500000000001 H
   0.5397000000000001    0.8599000000000001    0.6334500000000001 H
   0.2897000000000001    0.6401000000000000    0.3834500000000001 H
   0.2897000000000001    0.6401000000000000    0.8834500000000001 H
   0.7897000000000001    0.6401000000000000    0.3834500000000001 H
   0.7897000000000001    0.6401000000000000    0.8834500000000001 H
   0.2103000000000000    0.6401000000000000    0.3665500000000000 H
   0.2103000000000000    0.6401000000000000    0.8665500000000000 H
   0.7103000000000000    0.6401000000000000    0.3665500000000001 H
   0.7103000000000000    0.6401000000000000    0.8665500000000000 H
   0.0397000000000000    0.1401000000000000    0.3834500000000000 H
   0.0397000000000000    0.1401000000000000    0.8834500000000001 H
   0.5397000000000001    0.1401000000000000    0.3834500000000001 H
   0.5397000000000001    0.1401000000000000    0.8834500000000001 H
   0.4603000000000000    0.1401000000000000    0.3665500000000000 H
   0.4603000000000000    0.1401000000000000    0.8665500000000000 H
   0.9603000000000000    0.1401000000000000    0.3665500000000000 H
   0.9603000000000000    0.1401000000000000    0.8665500000000000 H
   0.3624500000000000    0.4343000000000000    0.2429000000000000 H
   0.3624500000000000    0.4343000000000000    0.7429000000000000 H
   0.8624500000000000    0.4343000000000000    0.2429000000000001 H
   0.8624500000000000    0.4343000000000000    0.7429000000000000 H
   0.1375500000000000    0.4343000000000000    0.0071000000000000 H
   0.1375500000000000    0.4343000000000000    0.5071000000000000 H
   0.6375500000000001    0.4343000000000000    0.0071000000000000 H
   0.6375500000000001    0.4343000000000000    0.5071000000000001 H
   0.1124500000000000    0.9343000000000001    0.2429000000000000 H
   0.1124500000000000    0.9343000000000001    0.7429000000000000 H
   0.6124499999999999    0.9343000000000001    0.2429000000000000 H
   0.6124499999999999    0.9343000000000001    0.7429000000000000 H
   0.3875500000000001    0.9343000000000001    0.0071000000000000 H
   0.3875500000000001    0.9343000000000001    0.5071000000000000 H
   0.8875500000000001    0.9343000000000001    0.0071000000000001 H
   0.8875500000000001    0.9343000000000001    0.5071000000000001 H
   0.1375500000000000    0.5657000000000001    0.2571000000000000 H
   0.1375500000000000    0.5657000000000001    0.7571000000000000 H
   0.6375500000000001    0.5657000000000001    0.2571000000000001 H
   0.6375500000000001    0.5657000000000001    0.7571000000000001 H
   0.3624500000000000    0.5657000000000001    0.4929000000000000 H
   0.3624500000000000    0.5657000000000001    0.9929000000000000 H
   0.8624500000000000    0.5657000000000001    0.4929000000000001 H
   0.8624500000000000    0.5657000000000001    0.9929000000000000 H
   0.3875500000000001    0.0657000000000000    0.2571000000000001 H
   0.3875500000000001    0.0657000000000000    0.7571000000000001 H
   0.8875500000000001    0.0657000000000000    0.2571000000000001 H
   0.8875500000000001    0.0657000000000000    0.7571000000000001 H
   0.1124500000000000    0.0657000000000000    0.4929000000000001 H
   0.1124500000000000    0.0657000000000000    0.9929000000000001 H
   0.6124499999999999    0.0657000000000000    0.4929000000000000 H
   0.6124499999999999    0.0657000000000000    0.9929000000000000 H
   0.3562000000000000    0.7564000000000000    0.2066000000000000 H
   0.3562000000000000    0.7564000000000000    0.7066000000000000 H
   0.8562000000000002    0.7564000000000000    0.2066000000000001 H
   0.8562000000000002    0.7564000000000000    0.7066000000000000 H
   0.1438000000000000    0.7564000000000000    0.0434000000000000 H
   0.1438000000000000    0.7564000000000000    0.5434000000000000 H
   0.6438000000000000    0.7564000000000000    0.0434000000000000 H
   0.6438000000000000    0.7564000000000000    0.5434000000000000 H
   0.1062000000000001    0.2564000000000000    0.2066000000000000 H
   0.1062000000000001    0.2564000000000000    0.7066000000000001 H
   0.6062000000000002    0.2564000000000000    0.2066000000000000 H
   0.6062000000000002    0.2564000000000000    0.7066000000000000 H
   0.3938000000000000    0.2564000000000000    0.0434000000000000 H
   0.3938000000000000    0.2564000000000000    0.5434000000000000 H
   0.8938000000000000    0.2564000000000000    0.0434000000000000 H
   0.8938000000000000    0.2564000000000000    0.5434000000000000 H
   0.1438000000000000    0.2436000000000001    0.2934000000000000 H
   0.1438000000000000    0.2436000000000001    0.7934000000000000 H
   0.6438000000000000    0.2436000000000001    0.2934000000000000 H
   0.6438000000000000    0.2436000000000001    0.7934000000000000 H
   0.3562000000000000    0.2436000000000001    0.4566000000000000 H
   0.3562000000000000    0.2436000000000001    0.9566000000000000 H
   0.8562000000000002    0.2436000000000001    0.4566000000000001 H
   0.8562000000000002    0.2436000000000001    0.9566000000000000 H
   0.3938000000000000    0.7436000000000001    0.2934000000000000 H
   0.3938000000000000    0.7436000000000001    0.7934000000000001 H
   0.8938000000000000    0.7436000000000001    0.2934000000000000 H
   0.8938000000000000    0.7436000000000001    0.7934000000000000 H
   0.1062000000000001    0.7436000000000001    0.4566000000000000 H
   0.1062000000000001    0.7436000000000001    0.9566000000000000 H
   0.6062000000000002    0.7436000000000001    0.4566000000000001 H
   0.6062000000000002    0.7436000000000001    0.9566000000000001 H
   0.3166500000000000    0.8552999999999999    0.2123500000000000 H
   0.3166500000000000    0.8552999999999999    0.7123500000000001 H
   0.8166500000000001    0.8552999999999999    0.2123500000000001 H
   0.8166500000000001    0.8552999999999999    0.7123500000000000 H
   0.1833500000000000    0.8552999999999999    0.0376500000000000 H
   0.1833500000000000    0.8552999999999999    0.5376500000000001 H
   0.6833500000000001    0.8552999999999999    0.0376500000000001 H
   0.6833500000000001    0.8552999999999999    0.5376500000000001 H
   0.0666500000000000    0.3553000000000000    0.2123500000000000 H
   0.0666500000000000    0.3553000000000000    0.7123500000000000 H
   0.5666500000000001    0.3553000000000000    0.2123500000000001 H
   0.5666500000000001    0.3553000000000000    0.7123500000000000 H
   0.4333500000000001    0.3553000000000000    0.0376500000000000 H
   0.4333500000000001    0.3553000000000000    0.5376500000000001 H
   0.9333500000000001    0.3553000000000000    0.0376500000000001 H
   0.9333500000000001    0.3553000000000000    0.5376500000000001 H
   0.1833500000000000    0.1447000000000001    0.2876500000000000 H
   0.1833500000000000    0.1447000000000001    0.7876500000000000 H
   0.6833500000000001    0.1447000000000001    0.2876500000000001 H
   0.6833500000000001    0.1447000000000001    0.7876500000000001 H
   0.3166500000000000    0.1447000000000001    0.4623500000000001 H
   0.3166500000000000    0.1447000000000001    0.9623500000000001 H
   0.8166500000000001    0.1447000000000001    0.4623500000000001 H
   0.8166500000000001    0.1447000000000001    0.9623500000000001 H
   0.4333500000000001    0.6447000000000002    0.2876500000000000 H
   0.4333500000000001    0.6447000000000002    0.7876500000000001 H
   0.9333500000000001    0.6447000000000002    0.2876500000000001 H
   0.9333500000000001    0.6447000000000002    0.7876500000000001 H
   0.0666500000000000    0.6447000000000002    0.4623500000000001 H
   0.0666500000000000    0.6447000000000002    0.9623500000000001 H
   0.5666500000000001    0.6447000000000002    0.4623500000000001 H
   0.5666500000000001    0.6447000000000002    0.9623500000000000 H
   0.3090500000000000    0.7907000000000001    0.1662000000000000 H
   0.3090500000000000    0.7907000000000001    0.6662000000000001 H
   0.8090500000000000    0.7907000000000001    0.1662000000000000 H
   0.8090500000000000    0.7907000000000001    0.6662000000000000 H
   0.1909500000000000    0.7907000000000001    0.0838000000000001 H
   0.1909500000000000    0.7907000000000001    0.5838000000000001 H
   0.6909500000000001    0.7907000000000001    0.0838000000000001 H
   0.6909500000000001    0.7907000000000001    0.5838000000000001 H
   0.0590500000000001    0.2907000000000000    0.1662000000000000 H
   0.0590500000000001    0.2907000000000000    0.6662000000000000 H
   0.5590500000000000    0.2907000000000000    0.1662000000000000 H
   0.5590500000000000    0.2907000000000000    0.6662000000000000 H
   0.4409500000000001    0.2907000000000000    0.0838000000000001 H
   0.4409500000000001    0.2907000000000000    0.5838000000000001 H
   0.9409500000000002    0.2907000000000000    0.0838000000000001 H
   0.9409500000000002    0.2907000000000000    0.5838000000000001 H
   0.1909500000000000    0.2093000000000001    0.3338000000000000 H
   0.1909500000000000    0.2093000000000001    0.8338000000000000 H
   0.6909500000000001    0.2093000000000001    0.3338000000000000 H
   0.6909500000000001    0.2093000000000001    0.8338000000000001 H
   0.3090500000000000    0.2093000000000001    0.4162000000000001 H
   0.3090500000000000    0.2093000000000001    0.9162000000000001 H
   0.8090500000000000    0.2093000000000001    0.4162000000000001 H
   0.8090500000000000    0.2093000000000001    0.9162000000000001 H
   0.4409500000000001    0.7093000000000002    0.3338000000000000 H
   0.4409500000000001    0.7093000000000002    0.8338000000000001 H
   0.9409500000000002    0.7093000000000002    0.3338000000000001 H
   0.9409500000000002    0.7093000000000002    0.8338000000000001 H
   0.0590500000000001    0.7093000000000002    0.4162000000000000 H
   0.0590500000000001    0.7093000000000002    0.9162000000000000 H
   0.5590500000000000    0.7093000000000002    0.4162000000000000 H
   0.5590500000000000    0.7093000000000002    0.9162000000000000 H
   0.1993500000000000    0.6394000000000000    0.1584500000000000 H
   0.1993500000000000    0.6394000000000000    0.6584500000000001 H
   0.6993500000000000    0.6394000000000000    0.1584500000000001 H
   0.6993500000000000    0.6394000000000000    0.6584500000000001 H
   0.3006500000000000    0.6394000000000000    0.0915500000000000 H
   0.3006500000000000    0.6394000000000000    0.5915500000000000 H
   0.8006500000000001    0.6394000000000000    0.0915500000000000 H
   0.8006500000000001    0.6394000000000000    0.5915500000000000 H
   0.4493500000000001    0.1394000000000000    0.1584500000000000 H
   0.4493500000000001    0.1394000000000000    0.6584500000000000 H
   0.9493500000000000    0.1394000000000000    0.1584500000000000 H
   0.9493500000000000    0.1394000000000000    0.6584500000000000 H
   0.0506500000000000    0.1394000000000000    0.0915500000000000 H
   0.0506500000000000    0.1394000000000000    0.5915500000000000 H
   0.5506500000000000    0.1394000000000000    0.0915500000000000 H
   0.5506500000000000    0.1394000000000000    0.5915500000000000 H
   0.3006500000000000    0.3606000000000001    0.3415500000000001 H
   0.3006500000000000    0.3606000000000001    0.8415500000000001 H
   0.8006500000000001    0.3606000000000001    0.3415500000000001 H
   0.8006500000000001    0.3606000000000001    0.8415500000000001 H
   0.1993500000000000    0.3606000000000001    0.4084500000000000 H
   0.1993500000000000    0.3606000000000001    0.9084500000000001 H
   0.6993500000000000    0.3606000000000001    0.4084500000000000 H
   0.6993500000000000    0.3606000000000001    0.9084500000000000 H
   0.0506500000000000    0.8606000000000001    0.3415500000000000 H
   0.0506500000000000    0.8606000000000001    0.8415500000000000 H
   0.5506500000000000    0.8606000000000001    0.3415500000000001 H
   0.5506500000000000    0.8606000000000001    0.8415500000000000 H
   0.4493500000000001    0.8606000000000001    0.4084500000000000 H
   0.4493500000000001    0.8606000000000001    0.9084500000000000 H
   0.9493500000000000    0.8606000000000001    0.4084500000000000 H
   0.9493500000000000    0.8606000000000001    0.9084500000000000 H
   0.2363500000000000    0.7949000000000002    0.1702000000000000 H
   0.2363500000000000    0.7949000000000002    0.6702000000000000 H
   0.7363500000000001    0.7949000000000002    0.1702000000000000 H
   0.7363500000000001    0.7949000000000002    0.6702000000000000 H
   0.2636500000000000    0.7949000000000002    0.0798000000000001 H
   0.2636500000000000    0.7949000000000002    0.5798000000000001 H
   0.7636500000000001    0.7949000000000002    0.0798000000000001 H
   0.7636500000000001    0.7949000000000002    0.5798000000000000 H
   0.4863500000000000    0.2949000000000002    0.1702000000000000 H
   0.4863500000000000    0.2949000000000002    0.6702000000000000 H
   0.9863500000000001    0.2949000000000002    0.1702000000000000 H
   0.9863500000000001    0.2949000000000002    0.6702000000000000 H
   0.0136500000000000    0.2949000000000002    0.0798000000000000 H
   0.0136500000000000    0.2949000000000002    0.5798000000000000 H
   0.5136500000000001    0.2949000000000002    0.0798000000000000 H
   0.5136500000000001    0.2949000000000002    0.5798000000000000 H
   0.2636500000000000    0.2051000000000000    0.3298000000000000 H
   0.2636500000000000    0.2051000000000000    0.8298000000000001 H
   0.7636500000000001    0.2051000000000000    0.3298000000000000 H
   0.7636500000000001    0.2051000000000000    0.8298000000000000 H
   0.2363500000000000    0.2051000000000000    0.4202000000000001 H
   0.2363500000000000    0.2051000000000000    0.9202000000000000 H
   0.7363500000000001    0.2051000000000000    0.4202000000000000 H
   0.7363500000000001    0.2051000000000000    0.9202000000000001 H
   0.0136500000000000    0.7050999999999999    0.3298000000000000 H
   0.0136500000000000    0.7050999999999999    0.8298000000000001 H
   0.5136500000000001    0.7050999999999999    0.3298000000000000 H
   0.5136500000000001    0.7050999999999999    0.8298000000000000 H
   0.4863500000000000    0.7050999999999999    0.4202000000000001 H
   0.4863500000000000    0.7050999999999999    0.9202000000000000 H
   0.9863500000000001    0.7050999999999999    0.4202000000000001 H
   0.9863500000000001    0.7050999999999999    0.9202000000000000 H
   0.2287500000000000    0.6965000000000000    0.2070000000000000 H
   0.2287500000000000    0.6965000000000000    0.7070000000000000 H
   0.7287500000000001    0.6965000000000000    0.2070000000000000 H
   0.7287500000000001    0.6965000000000000    0.7070000000000001 H
   0.2712500000000000    0.6965000000000000    0.0430000000000000 H
   0.2712500000000000    0.6965000000000000    0.5430000000000000 H
   0.7712500000000000    0.6965000000000000    0.0430000000000000 H
   0.7712500000000000    0.6965000000000000    0.5430000000000000 H
   0.4787500000000001    0.1964999999999999    0.2070000000000000 H
   0.4787500000000001    0.1964999999999999    0.7070000000000001 H
   0.9787500000000001    0.1964999999999999    0.2070000000000000 H
   0.9787500000000001    0.1964999999999999    0.7070000000000001 H
   0.0212500000000000    0.1964999999999999    0.0430000000000000 H
   0.0212500000000000    0.1964999999999999    0.5430000000000000 H
   0.5212500000000001    0.1964999999999999    0.0430000000000000 H
   0.5212500000000001    0.1964999999999999    0.5430000000000000 H
   0.2712500000000000    0.3035000000000000    0.2930000000000001 H
   0.2712500000000000    0.3035000000000000    0.7930000000000000 H
   0.7712500000000000    0.3035000000000000    0.2930000000000001 H
   0.7712500000000000    0.3035000000000000    0.7930000000000000 H
   0.2287500000000000    0.3035000000000000    0.4570000000000000 H
   0.2287500000000000    0.3035000000000000    0.9570000000000000 H
   0.7287500000000001    0.3035000000000000    0.4570000000000000 H
   0.7287500000000001    0.3035000000000000    0.9570000000000000 H
   0.0212500000000000    0.8035000000000001    0.2930000000000000 H
   0.0212500000000000    0.8035000000000001    0.7930000000000000 H
   0.5212500000000001    0.8035000000000001    0.2930000000000001 H
   0.5212500000000001    0.8035000000000001    0.7930000000000001 H
   0.4787500000000001    0.8035000000000001    0.4570000000000000 H
   0.4787500000000001    0.8035000000000001    0.9570000000000001 H
   0.9787500000000001    0.8035000000000001    0.4570000000000001 H
   0.9787500000000001    0.8035000000000001    0.9570000000000001 H
   0.2156500000000000    0.1459000000000000    0.2249000000000000 H
   0.2156500000000000    0.1459000000000000    0.7249000000000001 H
   0.7156500000000001    0.1459000000000000    0.2249000000000001 H
   0.7156500000000001    0.1459000000000000    0.7249000000000001 H
   0.2843500000000000    0.1459000000000000    0.0251000000000000 H
   0.2843500000000000    0.1459000000000000    0.5251000000000001 H
   0.7843500000000001    0.1459000000000000    0.0251000000000001 H
   0.7843500000000001    0.1459000000000000    0.5251000000000001 H
   0.4656500000000001    0.6459000000000000    0.2249000000000000 H
   0.4656500000000001    0.6459000000000000    0.7249000000000001 H
   0.9656500000000001    0.6459000000000000    0.2249000000000001 H
   0.9656500000000001    0.6459000000000000    0.7249000000000001 H
   0.0343500000000000    0.6459000000000000    0.0251000000000000 H
   0.0343500000000000    0.6459000000000000    0.5251000000000000 H
   0.5343500000000000    0.6459000000000000    0.0251000000000000 H
   0.5343500000000000    0.6459000000000000    0.5251000000000000 H
   0.2843500000000000    0.8541000000000001    0.2751000000000000 H
   0.2843500000000000    0.8541000000000001    0.7751000000000001 H
   0.7843500000000001    0.8541000000000001    0.2751000000000001 H
   0.7843500000000001    0.8541000000000001    0.7751000000000001 H
   0.2156500000000000    0.8541000000000001    0.4749000000000000 H
   0.2156500000000000    0.8541000000000001    0.9749000000000000 H
   0.7156500000000001    0.8541000000000001    0.4749000000000001 H
   0.7156500000000001    0.8541000000000001    0.9749000000000001 H
   0.0343500000000000    0.3541000000000000    0.2751000000000001 H
   0.0343500000000000    0.3541000000000000    0.7751000000000001 H
   0.5343500000000000    0.3541000000000000    0.2751000000000001 H
   0.5343500000000000    0.3541000000000000    0.7751000000000000 H
   0.4656500000000001    0.3541000000000000    0.4749000000000000 H
   0.4656500000000001    0.3541000000000000    0.9749000000000001 H
   0.9656500000000001    0.3541000000000000    0.4749000000000001 H
   0.9656500000000001    0.3541000000000000    0.9749000000000001 H
   0.1546500000000001    0.9602000000000001    0.1844000000000000 H
   0.1546500000000001    0.9602000000000001    0.6844000000000000 H
   0.6546500000000002    0.9602000000000001    0.1844000000000001 H
   0.6546500000000002    0.9602000000000001    0.6844000000000001 H
   0.3453500000000000    0.9602000000000001    0.0656000000000000 H
   0.3453500000000000    0.9602000000000001    0.5656000000000001 H
   0.8453500000000000    0.9602000000000001    0.0656000000000001 H
   0.8453500000000000    0.9602000000000001    0.5656000000000000 H
   0.4046500000000000    0.4602000000000001    0.1844000000000000 H
   0.4046500000000000    0.4602000000000001    0.6844000000000001 H
   0.9046500000000002    0.4602000000000001    0.1844000000000001 H
   0.9046500000000002    0.4602000000000001    0.6844000000000000 H
   0.0953500000000000    0.4602000000000001    0.0656000000000000 H
   0.0953500000000000    0.4602000000000001    0.5656000000000000 H
   0.5953500000000000    0.4602000000000001    0.0656000000000000 H
   0.5953500000000000    0.4602000000000001    0.5656000000000000 H
   0.3453500000000000    0.0398000000000000    0.3156000000000000 H
   0.3453500000000000    0.0398000000000000    0.8156000000000001 H
   0.8453500000000000    0.0398000000000000    0.3156000000000000 H
   0.8453500000000000    0.0398000000000000    0.8156000000000000 H
   0.1546500000000000    0.0398000000000000    0.4344000000000001 H
   0.1546500000000000    0.0398000000000000    0.9344000000000001 H
   0.6546500000000002    0.0398000000000000    0.4344000000000001 H
   0.6546500000000002    0.0398000000000000    0.9344000000000001 H
   0.0953500000000000    0.5398000000000002    0.3156000000000000 H
   0.0953500000000000    0.5398000000000002    0.8156000000000000 H
   0.5953500000000000    0.5398000000000002    0.3156000000000000 H
   0.5953500000000000    0.5398000000000002    0.8156000000000001 H
   0.4046500000000000    0.5398000000000002    0.4344000000000001 H
   0.4046500000000000    0.5398000000000002    0.9344000000000001 H
   0.9046500000000002    0.5398000000000002    0.4344000000000001 H
   0.9046500000000002    0.5398000000000002    0.9344000000000000 H
   0.1221500000000000    0.9706000000000001    0.1103000000000000 H
   0.1221500000000000    0.9706000000000001    0.6103000000000001 H
   0.6221500000000000    0.9706000000000001    0.1103000000000000 H
   0.6221500000000000    0.9706000000000001    0.6103000000000000 H
   0.3778500000000000    0.9706000000000001    0.1397000000000000 H
   0.3778500000000000    0.9706000000000001    0.6396999999999999 H
   0.8778500000000001    0.9706000000000001    0.1397000000000000 H
   0.8778500000000001    0.9706000000000001    0.6397000000000000 H
   0.3721500000000000    0.4706000000000001    0.1103000000000000 H
   0.3721500000000000    0.4706000000000001    0.6103000000000001 H
   0.8721500000000000    0.4706000000000001    0.1103000000000000 H
   0.8721500000000000    0.4706000000000001    0.6103000000000000 H
   0.1278500000000000    0.4706000000000001    0.1397000000000000 H
   0.1278500000000000    0.4706000000000001    0.6397000000000000 H
   0.6278500000000001    0.4706000000000001    0.1397000000000001 H
   0.6278500000000001    0.4706000000000001    0.6397000000000000 H
   0.3778500000000000    0.0294000000000000    0.3897000000000000 H
   0.3778500000000000    0.0294000000000000    0.8896999999999999 H
   0.8778500000000001    0.0294000000000000    0.3897000000000000 H
   0.8778500000000001    0.0294000000000000    0.8897000000000002 H
   0.1221500000000000    0.0294000000000000    0.3603000000000000 H
   0.1221500000000000    0.0294000000000000    0.8603000000000001 H
   0.6221500000000000    0.0294000000000000    0.3603000000000000 H
   0.6221500000000000    0.0294000000000000    0.8603000000000000 H
   0.1278500000000000    0.5294000000000000    0.3897000000000000 H
   0.1278500000000000    0.5294000000000000    0.8897000000000000 H
   0.6278500000000001    0.5294000000000000    0.3897000000000000 H
   0.6278500000000001    0.5294000000000000    0.8897000000000000 H
   0.3721500000000000    0.5294000000000000    0.3603000000000000 H
   0.3721500000000000    0.5294000000000000    0.8603000000000001 H
   0.8721500000000000    0.5294000000000000    0.3603000000000000 H
   0.8721500000000000    0.5294000000000000    0.8603000000000000 H
   0.2998400000000001    0.3005500000000000    0.2241950000000000 C
   0.2998400000000001    0.3005500000000000    0.7241950000000000 C
   0.7998400000000001    0.3005500000000000    0.2241950000000001 C
   0.7998400000000001    0.3005500000000000    0.7241950000000000 C
   0.2001600000000000    0.3005500000000000    0.0258050000000000 C
   0.2001600000000000    0.3005500000000000    0.5258050000000001 C
   0.7001600000000000    0.3005500000000000    0.0258050000000000 C
   0.7001600000000000    0.3005500000000000    0.5258050000000001 C
   0.0498400000000000    0.8005500000000001    0.2241950000000000 C
   0.0498400000000000    0.8005500000000001    0.7241950000000000 C
   0.5498400000000001    0.8005500000000001    0.2241950000000001 C
   0.5498400000000001    0.8005500000000001    0.7241950000000000 C
   0.4501600000000001    0.8005500000000001    0.0258050000000001 C
   0.4501600000000001    0.8005500000000001    0.5258050000000001 C
   0.9501600000000001    0.8005500000000001    0.0258050000000001 C
   0.9501600000000001    0.8005500000000001    0.5258050000000001 C
   0.2001600000000000    0.6994500000000000    0.2758050000000000 C
   0.2001600000000000    0.6994500000000000    0.7758050000000000 C
   0.7001600000000000    0.6994500000000000    0.2758050000000000 C
   0.7001600000000000    0.6994500000000000    0.7758050000000001 C
   0.2998400000000001    0.6994500000000000    0.4741950000000001 C
   0.2998400000000001    0.6994500000000000    0.9741950000000001 C
   0.7998400000000001    0.6994500000000000    0.4741950000000001 C
   0.7998400000000001    0.6994500000000000    0.9741950000000001 C
   0.4501600000000001    0.1994500000000000    0.2758050000000000 C
   0.4501600000000001    0.1994500000000000    0.7758050000000001 C
   0.9501600000000001    0.1994500000000000    0.2758050000000001 C
   0.9501600000000001    0.1994500000000000    0.7758050000000001 C
   0.0498400000000000    0.1994500000000000    0.4741950000000000 C
   0.0498400000000000    0.1994500000000000    0.9741949999999999 C
   0.5498400000000001    0.1994500000000000    0.4741950000000001 C
   0.5498400000000001    0.1994500000000000    0.9741950000000000 C
   0.1630700000000000    0.1670600000000000    0.1066350000000000 C
   0.1630700000000000    0.1670600000000000    0.6066350000000000 C
   0.6630700000000000    0.1670600000000000    0.1066350000000000 C
   0.6630700000000000    0.1670600000000000    0.6066350000000000 C
   0.3369300000000001    0.1670600000000000    0.1433650000000000 C
   0.3369300000000001    0.1670600000000000    0.6433650000000001 C
   0.8369300000000001    0.1670600000000000    0.1433650000000001 C
   0.8369300000000001    0.1670600000000000    0.6433650000000001 C
   0.4130700000000000    0.6670600000000001    0.1066350000000000 C
   0.4130700000000000    0.6670600000000001    0.6066350000000000 C
   0.9130700000000002    0.6670600000000001    0.1066350000000001 C
   0.9130700000000002    0.6670600000000001    0.6066350000000000 C
   0.0869300000000000    0.6670600000000001    0.1433650000000000 C
   0.0869300000000000    0.6670600000000001    0.6433650000000001 C
   0.5869300000000001    0.6670600000000001    0.1433650000000000 C
   0.5869300000000001    0.6670600000000001    0.6433650000000001 C
   0.3369300000000001    0.8329400000000001    0.3933650000000000 C
   0.3369300000000001    0.8329400000000001    0.8933650000000001 C
   0.8369300000000001    0.8329400000000001    0.3933650000000001 C
   0.8369300000000001    0.8329400000000001    0.8933650000000001 C
   0.1630700000000000    0.8329400000000001    0.3566350000000000 C