H96 C88 N16 O8
1.0
  14.9466859165839328    0.0000000000000000   -7.4769135584806277
  -0.0000000000000005    7.3864000000000001    0.0000000000000005
   0.0000000000000000    0.0000000000000000   17.5904999999999987
H C N O
96 88 16 8
direct
   0.3118327822233357    0.1761443046040450    0.1488997906836731 H
   0.7066067606075670    0.1812548042619987    0.3519882834794322 H
   0.7983027801252087    0.6752615894703766    0.1512066381739207 H
   0.2039737555173642    0.6579085430015162    0.3466535254516910 H
   0.7003181788437192    0.8079669400438815    0.8461786942978126 H
   0.3034450602138932    0.8070908004469709    0.6532702002047761 H
   0.2005464287518625    0.3249041111511572    0.8570050662851056 H
   0.8051796662486208    0.3266081448264864    0.6599050826908736 H
   0.4166706837406213    0.3487680661710050    0.2366558453065954 H
   0.5646925944005783    0.3686399199659901    0.2647599211470094 H
   0.9250612522864361    0.8598224844323872    0.2309267248531521 H
   0.0818545501489848    0.8787965348825633    0.2641187522162219 H
   0.5808971163818171    0.6377897465734823    0.7606793411768116 H
   0.4139777816391318    0.6375876425675496    0.7323191198065826 H
   0.0801850768358972    0.1482419513653878    0.7654021318342311 H
   0.9146274394005095    0.1390487272087478    0.7328173668613922 H
   0.7203864555809419    0.4410643947032971    0.4895900159707715 H
   0.2766959158100974    0.4340884213844575    0.0140565484622303 H
   0.2173625886610809    0.9304050536711256    0.4744505569400828 H
   0.7735484677896195    0.9234141038655748    0.0134260777618569 H
   0.2710883082560885    0.5605074921822644    0.5112019887889845 H
   0.7344919046387309    0.5857176863404098    0.9856087112320395 H
   0.7717516154006911    0.0522640959077788    0.5062015024110271 H
   0.2253692707934744    0.0592050312448157    0.9857699058064625 H
   0.7191246144717771    0.7505800910569920    0.4212888809593283 H
   0.2859701351914479    0.7571338102047310    0.0865966648546634 H
   0.2122163037186484    0.2595235149104117    0.4146911603276697 H
   0.7788106790428660    0.2552594586338647    0.0692307542872656 H
   0.2788444519142571    0.2495031318166969    0.5851242925805368 H
   0.7140757146023966    0.2324192844390242    0.9200670384692392 H
   0.7826422883496350    0.7567614887177492    0.5847624445541032 H
   0.2101433148086711    0.7281500692701786    0.9098247677782725 H
   0.6302319473903235    0.8505861129250168    0.4209905579152747 H
   0.3740029129467245    0.8572838465737663    0.0755478987559621 H
   0.1221851438628313    0.3576115815468722    0.4199305716523395 H
   0.8750903649727448    0.3570365836994314    0.0779645295264912 H
   0.3616796679910823    0.1592499403743755    0.5801542434338083 H
   0.6313207894750462    0.1417847038551051    0.9232446124751823 H
   0.8561904717830315    0.6554159891611331    0.5646382274835292 H
   0.1348464944312437    0.6363866047268982    0.9324864409237406 H
   0.6174329855456079    0.7865278421849937    0.3376124407065486 H
   0.3860977403849059    0.7610644857532006    0.1632509810976898 H
   0.1141705045105166    0.2896946190147834    0.3338844601271281 H
   0.8866878626851281    0.2882242260011724    0.1715638791871673 H
   0.3847772445373516    0.1994564001643264    0.6727405091549794 H
   0.6160150314519046    0.2092696074916046    0.8348164483589191 H
   0.8793488599804631    0.7196874741054381    0.6653057150337576 H
   0.1157665100067918    0.7113474132485824    0.8368256646081550 H
   0.3969698886821456    0.6509799358933146    0.3257164518121157 H
   0.5971135312296686    0.6348707280237341    0.1727768300590220 H
   0.8976689680700604    0.1465648957373643    0.3205119777575941 H
   0.0993405752812185    0.1238597579033582    0.1835390614980508 H
   0.5993787584064830    0.3615233421820717    0.6833724130655903 H
   0.4019961137437297    0.3641259238478427    0.8174296128619839 H
   0.1093615522243357    0.8636964788851019    0.6921978819112824 H
   0.8966417353492981    0.8644052198022932    0.8264014965293867 H
   0.4809947618841863    0.7752125482298166    0.3486375516511624 H
   0.5179213321859576    0.7974425255494698    0.1606479923890780 H
   0.9700142818979881    0.2724588884733516    0.3366123640952369 H
   0.0302233469230552    0.2969274040429766    0.1617616220192755 H
   0.5311774766232312    0.2035436868482643    0.6511187493099826 H
   0.4717493362507784    0.2026064856513765    0.8420768718942689 H
   0.0292271626447398    0.7155239753360096    0.6586893642105407 H
   0.9611424257092385    0.7160774924895766    0.8365282379201826 H
   0.4605993598396811    0.7140020250019694    0.4054451480311259 H
   0.5424642665538517    0.6932938348693652    0.0844755361383464 H
   0.9551260870932137    0.2001151813483258    0.4173552430894955 H
   0.0346707181938807    0.1873297395989640    0.0799046829571525 H
   0.5414135948115010    0.2954107569373495    0.5906452753261988 H
   0.4526289269316370    0.2835850594979447    0.9067902366193528 H
   0.0437452485919293    0.8168488817162777    0.5917419885272329 H
   0.9566093907109218    0.8024723827788620    0.9153593033367364 H
   0.4326934929926180    0.1542359967674082    0.4599252078846538 H
   0.5684970874944004    0.1489648587722367    0.0505774898924446 H
   0.9369452040188614    0.6462809927264220    0.4533254610695019 H
   0.0668894881410471    0.6450554414585749    0.0500376048771571 H
   0.5711101806814374    0.8771951987238239    0.5448496250996423 H
   0.4361150283072157    0.8465035516427575    0.9505103509520739 H
   0.0682114756639657    0.3862743564088270    0.5471716738027446 H
   0.9406349517979185    0.3475296149546588    0.9587180735691698 H
   0.3146830709626702    0.9495035170191859    0.3693324929451531 H
   0.6899914011935167    0.9601187553138719    0.1303243784294671 H
   0.8128944111237175    0.4723732688818090    0.3679277114170486 H
   0.1843432632467479    0.4515565157679488    0.1281418538595051 H
   0.6897724955785703    0.0517292571501749    0.6275690548985395 H
   0.3146853403004894    0.0427848621955560    0.8630164579301084 H
   0.1989603301934805    0.5305762793041165    0.6396753248205930 H
   0.8110978538459757    0.5495477599950566    0.8750276822332370 H
   0.2436412058836963    0.9552194424892217    0.2221753998578468 H
   0.7626332917953635    0.9930556357707399    0.2736126010264565 H
   0.7338602806522329    0.4728494437436217    0.2072366906030952 H
   0.2507092574061838    0.4766864833055231    0.2810809357780198 H
   0.7504676832774241    0.0178086143688583    0.7755774569593690 H
   0.2344344396698229    0.0386024334929240    0.7169366836527372 H
   0.2568624350107888    0.5450437711380413    0.7703562712993093 H
   0.7376015855908137    0.5459266849777892    0.7242200888590313 H
   0.6015937954641217    0.2918200869539229    0.4518619187124309 C
   0.4071021012821893    0.2998089241505604    0.0462389859064070 C
   0.0871901651273236    0.8105786283072706    0.4421071922707401 C
   0.8973864638668764    0.7785645494153451    0.0533497215054434 C
   0.3982183290288630    0.7092852287969736    0.5573610396836187 C
   0.6055105540757538    0.7037895302418938    0.9550856800106375 C
   0.8994198567912792    0.2015026907194736    0.5556095373988776 C
   0.0962726034620650    0.2038696017929585    0.9567821569875646 C
   0.3162605148488464    0.1545021197923415    0.2063502126833064 C
   0.6763279458992858    0.1725708532420834    0.2944118242963970 C
   0.8268088399543275    0.6773541310169368    0.2064115595614824 C
   0.1833480609315019    0.6569775791273723    0.2980086869416640 C
   0.6682662558730323    0.8269650444112883    0.7962821477821697 C
   0.3219675645325056    0.8315528443320596    0.7182636925916493 C
   0.1740372401362532    0.3351062563811590    0.7855378209453838 C
   0.8197352436429944    0.3381337650037673    0.7240087049311739 C
   0.3862283105780568    0.2742949894984004    0.2517335074915898 C
   0.5960142639861792    0.2705938531150642    0.2405584348090921 C
   0.8974385746919658    0.7860506126083018    0.2631339306218455 C
   0.0982166676162180    0.7790705291699369    0.2334516247953453 C
   0.6014544629201768    0.7099093921664130    0.7474901706810092 C
   0.4045339502465822    0.7196658480584764    0.7651321791004794 C
   0.0990734329217403    0.1903655851146008    0.7399702092168920 C
   0.8950038662994935    0.2034087419996549    0.7628162755259543 C
   0.6711484411794427    0.4446813963651117    0.4522317784919952 C
   0.3314548044661688    0.4305251621742602    0.0395697812082136 C
   0.1483577467770743    0.9252795555257713    0.4559940218603757 C
   0.8418537872247793    0.9352827080859982    0.0496829924537832 C
   0.3377720359321894    0.5582455382907354    0.5394088502021364 C
   0.6810963128244794    0.5575591864281079    0.9699908390321156 C
   0.8354724250254949    0.0485391869480649    0.5373892839112210 C
   0.1696599872921614    0.0702488684225365    0.9578799650931658 C
   0.6124064536250207    0.5806223390712381    0.4217145075642046 C
   0.3803229641871243    0.5711694763546601    0.0867878960279721 C
   0.1078492692074441    0.0831398333145966    0.4019202795472259 C
   0.8808880424096676    0.0844615799830489    0.0882218554092421 C
   0.3880393959185909    0.4185653688939115    0.5965366107915938 C
   0.6138763799515201    0.3946448913454196    0.9158956982685292 C
   0.8931764119316595    0.9229311564020578    0.5988845121254122 C
   0.1192562640925216    0.9064997997278750    0.9060746114479220 C
   0.6516333259756945    0.7559599163454127    0.3947529350533499 C
   0.3567984471929116    0.7688142110822402    0.1170634479625370 C
   0.1542115864019649    0.2582576866955683    0.3969603997369852 C
   0.8578316046824250    0.2511168762550681    0.1018989806786491 C
   0.3475351184074097    0.2321109424511215    0.6084988354297792 C
   0.6474159642230715    0.2612957698817638    0.8980378456274527 C
   0.8610496119176353    0.7372840993327199    0.6048926582806182 C
   0.1503055031929308    0.7221309279104901    0.8921366782739246 C
   0.4630726888245529    0.6661640163876152    0.3639903765509893 C
   0.5451361015446375    0.6759964864006576    0.1469217925217670 C
   0.9559814421908559    0.1879305815464187    0.3678229949385488 C
   0.0410323436156117    0.1985909070901783    0.1310896395493508 C
   0.5440167033963632    0.3299807357836931    0.6370553594360217 C
   0.4608789329350148    0.3317240250970233    0.8582963069121530 C
   0.0430523802030450    0.8097783847301301    0.6364721477048495 C
   0.9561535442536391    0.8328047930916083    0.8546409285235920 C
   0.4371078063833987    0.2715946005482620    0.3562253414671289 C
   0.5564905494537824    0.2729581455897527    0.1535726730889119 C
   0.9360163915678035    0.7797530691337189    0.3511643427507152 C
   0.0667950081526815    0.7740269795504934    0.1591678808002079 C
   0.5552737805962350    0.7299491232296808    0.6596235274857236 C
   0.4328928170456529    0.7545216887574868    0.8468760431191782 C
   0.0591843726454102    0.2428848369169508    0.6542132528188047 C
   0.9451891947972401    0.2315120653959870    0.8428691035508390 C
   0.4053216148342991    0.1605160468683913    0.3931051812409908 C
   0.5824239651728580    0.1629715161536461    0.1116641436519324 C
   0.9079724984440928    0.6332207278005140    0.3957844721139963 C
   0.0985707995301796    0.6348889503551571    0.1040312999826669 C
   0.6020519608611011    0.8473636389915352    0.6188232881299653 C
   0.3938610501040626    0.8687908805857996    0.8871329659586112 C
   0.0975325490301302    0.3813608061848935    0.6161198074505011 C
   0.8987839904370640    0.3373176864348622    0.8870298887058973 C
   0.3409564954670357    0.0345718250200596    0.3360776786161591 C
   0.6724081012580391    0.0207527870100726    0.1642291733266948 C
   0.8290422671437229    0.5417550934354717    0.3463653504125018 C
   0.1600019052335248    0.5380604768543084    0.1501565344968775 C
   0.6769718676840656    0.9595055151981210    0.6577813541498071 C
   0.3332487186079134    0.9292421390864317    0.8354335892490432 C
   0.1668176124206890    0.4350828159811906    0.6563482699688566 C
   0.8295295333987592    0.4821480964678678    0.8357641180486998 C
   0.2919768101441864    0.0643879996542646    0.2436270790079761 C
   0.7130892397388939    0.0599699169844430    0.2585727450371715 C
   0.7915329697093800    0.5467501277960045    0.2560534928419809 C
   0.1959553571151642    0.5586096472725578    0.2468056653588099 C
   0.7026510925582904    0.9517831497752560    0.7398999231041422 C
   0.3046885265808451    0.9645615905136621    0.7594940098273637 C
   0.2116459188342794    0.4472471222419115    0.7498438878547850 C
   0.7943229124327799    0.4326660236852766    0.7581851080862158 C
   0.5066901920965825    0.3864734130074648    0.3962385038770894 N
   0.4862358239182696    0.3962973180629826    0.1073507753591581 N
   0.0047388586420223    0.8758699410339364    0.4003600275020656 N
   0.9957478190754645    0.8578232744379699    0.1097981652170904 N
   0.4778448680251806    0.6351962975504030    0.6048086365574807 N
   0.5190093534498302    0.6070978509520314    0.8875520102761375 N
   0.9847598905982541    0.1205395887141179    0.6037491716299942 N
   0.0154964533100800    0.1299584118119032    0.9051953552481152 N
   0.5380759427589183    0.5263408999212901    0.3664341776435616 N
   0.4779016611916219    0.5491645278915742    0.1366462442696913 N
   0.0265566463443184    0.0287697125219346    0.3687391323039362 N
   0.9710809239708291    0.0375764907805345    0.1321617901072592 N
   0.4729677376799317    0.4576907500433487    0.6307391978650950 N
   0.5367683505575012    0.4712716847312421    0.8789831253807231 N
   0.9837863384938332    0.9659815564064396    0.6350661428514918 N
   0.0289433177701917    0.9547846304893898    0.8708619636964772 N
   0.6032026365402922    0.1418457899419771    0.4675572954093992 O
   0.3826865218095166    0.1342916207210932    0.0257764153006074 O
   0.1182366341403464    0.6419539832042435    0.4755476770516799 O
   0.8870909874437993    0.6473005661047000    0.0249527178528064 O
   0.3888650969878886    0.8437325346166581    0.5231814203375764 O
   0.6048419226350417    0.8719074639974457    0.9745818800210601 O
   0.8954111923506342    0.3703746610931958    0.5268025395305711 O
   0.1134391377810937    0.3664217251309895    0.9796259579711982 O
