H96 C88 N16 O8
1.0
  14.9466859165839328    0.0000000000000000   -7.4769135584806277
  -0.0000000000000005    7.3864000000000001    0.0000000000000005
   0.0000000000000000    0.0000000000000000   17.5904999999999987
H C N O
96 88 16 8
direct
   0.2973628472659868    0.1716675120790837    0.1498994328524992 H
   0.7043382700016578    0.1733500089795139    0.3482688416132486 H
   0.7982028457454545    0.6695913966657695    0.1549957111987645 H
   0.1991463729932702    0.6746934467712800    0.3484817040354584 H
   0.7020207890634068    0.8243683520872509    0.8449445006789452 H
   0.3016233390503623    0.8296604040760427    0.6527856861173745 H
   0.2017227791297269    0.3326515715293439    0.8459399465158122 H
   0.7976451073219486    0.3330465649081403    0.6521198571935813 H
   0.4194154611856254    0.3662266778575433    0.2325028491744167 H
   0.5770589830885812    0.3588293200306700    0.2639248984687195 H
   0.9216508521914665    0.8601916945974090    0.2308508962025391 H
   0.0767349068968122    0.8638164195883640    0.2652703419376972 H
   0.5798214913817106    0.6341668181807993    0.7683998298686479 H
   0.4175594082047521    0.6428137598793042    0.7321331270795861 H
   0.0774957250109437    0.1349711180423359    0.7651833375620037 H
   0.9179090297453529    0.1418666661954748    0.7304392966566592 H
   0.7224858201986882    0.4339307463886135    0.4828123455260004 H
   0.2735937989445709    0.4376001327778030    0.0114334656878306 H
   0.2253646375718200    0.9351850008899821    0.4832072427894350 H
   0.7733597319424838    0.9363446183549647    0.0157309284318965 H
   0.2768606771676616    0.5643730530126368    0.5125966076204523 H
   0.7258562860044134    0.5719331120379411    0.9854522964580242 H
   0.7771392295162985    0.0606792571746472    0.5158620034064616 H
   0.2255694920477484    0.0660927506048556    0.9888646196232022 H
   0.7117405336995570    0.7537508159475341    0.4103646910762364 H
   0.2859449055927448    0.7508849141580798    0.0852370623344164 H
   0.2108414440441352    0.2520737092692412    0.4142769225773985 H
   0.7908936902760784    0.2574520041204943    0.0884277489550648 H
   0.2862948116433328    0.2498123821182253    0.5864564009309710 H
   0.7140541929170637    0.2385973067550568    0.9126027271191216 H
   0.7897478629595421    0.7476046566188791    0.5863269719568551 H
   0.2108046540337673    0.7382157992696627    0.9135850836975810 H
   0.6307652099473137    0.8592289830024684    0.4244703239515062 H
   0.3640827162937534    0.8549890842047688    0.0759529183748775 H
   0.1365806915191998    0.3542282296711065    0.4257686338017813 H
   0.8678917522150600    0.3544191090673663    0.0784366227229864 H
   0.3637105347056775    0.1418388878780080    0.5736006879431630 H
   0.6310822467590709    0.1494918851586242    0.9244499015363703 H
   0.8686455655246524    0.6496410803097928    0.5771476438686295 H
   0.1317283929253846    0.6428907502171609    0.9216405340911188 H
   0.6149937171769565    0.7932062040009089    0.3311536592773363 H
   0.3815518994709672    0.7973088033465370    0.1669127250884187 H
   0.1212933385365316    0.2919480934943397    0.3344224369849241 H
   0.8795891269463123    0.2867959136401783    0.1653782206820432 H
   0.3806440956567497    0.2136408493890028    0.6651640069795046 H
   0.6171315870431909    0.2075062999032022    0.8346027719636385 H
   0.8793686280219901    0.7137010554864531    0.6667184705982471 H
   0.1205429638553003    0.7135428053083525    0.8326660507131305 H
   0.3966269713858993    0.6420132925304871    0.3140765349423523 H
   0.6034559643249374    0.6413621118786402    0.1820052568758077 H
   0.9014318944012755    0.1400715324681647    0.3196772326818780 H
   0.1032783173603098    0.1445784558335952    0.1846657617382637 H
   0.6035186015282554    0.3622828440380370    0.6820364486552136 H
   0.4014407611847683    0.3572395339182869    0.8172495810158340 H
   0.1042435226314309    0.8624044868209986    0.6854690814563669 H
   0.8983871035910709    0.8608133535470095    0.8139384385332408 H
   0.4699450200841017    0.7984041524401927    0.3385697980395640 H
   0.5279098550268907    0.7906443298902820    0.1577103570333115 H
   0.9721971834970879    0.3002270546504102    0.3384852951652867 H
   0.0249956965923510    0.2997916963870969    0.1587837931441716 H
   0.5242149337433478    0.2071463436926962    0.6576035122309555 H
   0.4734870540001153    0.2002217494403318    0.8388808352954730 H
   0.0246493598540038    0.7025031092974476    0.6571250994817955 H
   0.9712265514969604    0.7106242317482818    0.8387101623068838 H
   0.4567566356397303    0.6917319727242410    0.4117677907860601 H
   0.5422520024956085    0.6901664819928636    0.0849136948396469 H
   0.9542083992106649    0.1962346480328618    0.4130953910256164 H
   0.0435481763041171    0.2000894350582098    0.0886848381658810 H
   0.5416447989436922    0.3095954502947002    0.5846363731075651 H
   0.4604315050435188    0.3026864775374517    0.9165720107057420 H
   0.0431177829965710    0.8098605433860623    0.5870814394253774 H
   0.9582077707757897    0.7977301831283840    0.9156602059632606 H
   0.4320339112806378    0.1439079428501354    0.4474679212943800 H
   0.5716484903607131    0.1450173805670007    0.0527437730888298 H
   0.9294190208892671    0.6449547488040672    0.4513172614408867 H
   0.0717083022479421    0.6447713961865592    0.0503293719134301 H
   0.5667578806693848    0.8502257530027826    0.5477283851472713 H
   0.4308179987810002    0.8509817423457328    0.9520845537993816 H
   0.0693735306331175    0.3489257461149622    0.5522273425036124 H
   0.9326693435947576    0.3489100575596007    0.9517878616950874 H
   0.3068644682619461    0.9582572017639490    0.3659952404263676 H
   0.6901031167632983    0.9539445233946905    0.1299857915455297 H
   0.8092609677650725    0.4573004827003864    0.3713516771714450 H
   0.1899306892372716    0.4569343884123139    0.1332754650124350 H
   0.6882216404431045    0.0365525476530145    0.6288104074581657 H
   0.3114749970205715    0.0438265942174815    0.8683809126202535 H
   0.1874653446378789    0.5414683178114617    0.6296393293042588 H
   0.8095838161129356    0.5338419360698478    0.8675931902069443 H
   0.2475695662112377    0.9695894617984615    0.2224154962189786 H
   0.7582769204685211    0.9668674478976419    0.2795850850921841 H
   0.7430387530913586    0.4705546051665480    0.2226965077769321 H
   0.2553354408091792    0.4739910593079578    0.2816855219479696 H
   0.7555036286669972    0.0316606114748682    0.7819905860860348 H
   0.2433003262680181    0.0230585029590729    0.7196581704301298 H
   0.2570500456452177    0.5246841289509143    0.7782879497142228 H
   0.7428764549040436    0.5283232008014792    0.7225270956343620 H
   0.6027404910278673    0.3025191773797574    0.4488951778880506 C
   0.3994451705722009    0.3059674675731388    0.0497045192661735 C
   0.0997841589145030    0.7940371990414767    0.4476644498261643 C
   0.9007948218660166    0.7996365574922685    0.0490244271472205 C
   0.4019846908417982    0.7024032320418249    0.5501866490355737 C
   0.5999259589681607    0.7061639929295516    0.9487904605713365 C
   0.9006471377298023    0.1929325074547301    0.5510332197396353 C
   0.1029467240683037    0.1998487370277764    0.9491897186160626 C
   0.3249463624986826    0.1671188620170415    0.2154178604125023 C
   0.6739945644788153    0.1609578782800087    0.2855621003364766 C
   0.8280839773773268    0.6639200382402408    0.2159969801018516 C
   0.1722255369388003    0.6726149381054926    0.2868777835348854 C
   0.6751364637408259    0.8359657032823335    0.7849728096771496 C
   0.3261997530556494    0.8395269317727411    0.7126422085531076 C
   0.1761057133151852    0.3360947964692285    0.7893226602324642 C
   0.8288696223233957    0.3367629959834887    0.7147809657078125 C
   0.3990859876495751    0.2732907337590059    0.2589907832409905 C
   0.6045642974853205    0.2808867911868952    0.2400633992154149 C
   0.8990904406631701    0.7821410717934603    0.2588469009287845 C
   0.1030316917154264    0.7746487981767690    0.2377370729095446 C
   0.6041286380835194    0.7207345635963767    0.7421784686188769 C
   0.4017109428335777    0.7217104093138882    0.7623042225307184 C
   0.0989023557916601    0.2193380451661179    0.7369766648015990 C
   0.8960918233212721    0.2244369679760460    0.7578831012751456 C
   0.6640762312118251    0.4415275484255847    0.4571635177976355 C
   0.3353459025172363    0.4376079347973250    0.0446197958267330 C
   0.1614878212623634    0.9397381372807113    0.4569342677851343 C
   0.8350910850574853    0.9418626496977481    0.0449236162142882 C
   0.3378057966889066    0.5656672094976116    0.5464839610112193 C
   0.6616608253765627    0.5579573023134570    0.9569786026929633 C
   0.8412469732118959    0.0622532385782156    0.5477030343096467 C
   0.1648170146684163    0.0611641201461332    0.9561227783395497 C
   0.6172428492161451    0.5867730218259102    0.4093964405440843 C
   0.3855538802165439    0.5895972098734881    0.0937485254354482 C
   0.1116974314832211    0.0816008680246895    0.4063743506812333 C
   0.8878926680706769    0.0796711552519729    0.0947614316173662 C
   0.3855046265119808    0.4162375765137800    0.5958625011761854 C
   0.6147367569425451    0.4161393009943931    0.9098699653610476 C
   0.8878273843959269    0.9138829054056308    0.5929633221054567 C
   0.1167716335887489    0.9143727520974472    0.9058279203584172 C
   0.6483959027541335    0.7551182835744549    0.3934989864607776 C
   0.3502751948633934    0.7637231973571941    0.1077688118226724 C
   0.1446796586988895    0.2585928713435854    0.3910064054089027 C
   0.8508577074564788    0.2638549222168005    0.1038672381011019 C
   0.3518543878606482    0.2423214907595334    0.6087914613713782 C
   0.6443985842171719    0.2357929149902127    0.8922624064916519 C
   0.8530524042596762    0.7421558127253213    0.6093866388637806 C
   0.1485414310710796    0.7319950356773921    0.8935212076308456 C
   0.4549775926052722    0.6780369844170575    0.3588323082639112 C
   0.5434527344372949    0.6814474894914937    0.1391541060464362 C
   0.9611646819334638    0.1803014454762370    0.3597416504404219 C
   0.0417072833391969    0.1783024648587737    0.1436737545693411 C
   0.5414462128378305    0.3258485701725649    0.6422374975070236 C
   0.4565965779239777    0.3238643489330084    0.8604540063647914 C
   0.0440685198244254    0.8147988612791484    0.6424615858177958 C
   0.9549282340189056    0.8218569373823232    0.8565336892542775 C
   0.4405161728575449    0.2656203794839239    0.3483953337617815 C
   0.5624511991046396    0.2629156621888303    0.1530645762010458 C
   0.9378094136554966    0.7615648496550357    0.3484481815657310 C
   0.0652271866816388    0.7679058900505272    0.1517954910718710 C
   0.5609952248531416    0.7351066155746818    0.6530612204369630 C
   0.4355853214592920    0.7333919177646498    0.8459424062341835 C
   0.0600917569060966    0.2315606662203744    0.6527024881267168 C
   0.9370741018350390    0.2252002677052485    0.8483776981753166 C
   0.4069133564916598    0.1470535133497469    0.3918840950406286 C
   0.5933100428217206    0.1457165638395662    0.1088403741049963 C
   0.9020311183478851    0.6532003100672845    0.3897645867817082 C
   0.0980974958115148    0.6501873267477953    0.1132155794408787 C
   0.5926422523156893    0.8470160485003918    0.6108253316611620 C
   0.4068326925411129    0.8500859781972383    0.8925738311137055 C
   0.0966084121246296    0.3452910364943676    0.6130864946864671 C
   0.9034591941096609    0.3447711369585335    0.8871051037825484 C
   0.3302943415760873    0.0385379481205709    0.3424500132626577 C
   0.6645151381412157    0.0397342886229726    0.1581970770001706 C
   0.8291948146324070    0.5431029357921823    0.3396139812978876 C
   0.1683872995198346    0.5474136057572743    0.1588695831263426 C
   0.6675206731824649    0.9605837747421809    0.6614505196882623 C
   0.3323692078783630    0.9541373836331449    0.8431720518878876 C
   0.1669285937085654    0.4533512602791138    0.6571318807124629 C
   0.8303194329256007    0.4643500236248626    0.8397060037104817 C
   0.2965804212086008    0.0465895698801869    0.2550791281605423 C
   0.7062682765927905    0.0534587221520092    0.2452386801618489 C
   0.7912709690603507    0.5430931033460260    0.2537147548429815 C
   0.2063295998541907    0.5487599388041183    0.2437875777451676 C
   0.7092550230282025    0.9537178322565069    0.7495680383681638 C
   0.2953611252836927    0.9576076159311507    0.7547982823132474 C
   0.2067511716365237    0.4460374445857598    0.7458970466685069 C
   0.7923023172264405    0.4544470734082913    0.7502689683782617 C
   0.5137142920368785    0.3698484093657032    0.4002585675528598 N
   0.4878822622740949    0.3785462020095409    0.1009665846372769 N
   0.0160698298633212    0.8797933672105849    0.4012742030923449 N
   0.9822520752192879    0.8723699058840916    0.0998199267410416 N
   0.4827077121578662    0.6263930026526267    0.6015201110266690 N
   0.5136298741619173    0.6191080405285089    0.8974778287643603 N
   0.9835382383110765    0.1296838309286525    0.6015638355607134 N
   0.0122176316521762    0.1293987308951472    0.8975159997453452 N
   0.5265608319219929    0.5479686279063707    0.3661651179183878 N
   0.4723179116681395    0.5409456711848885    0.1322969493155601 N
   0.0261642881438612    0.0496878259900203    0.3669098767531262 N
   0.9766431384588811    0.0431411527396853    0.1310088969769907 N
   0.4750201323966688    0.4572427279557944    0.6356987062958775 N
   0.5216574262368414    0.4535347916564545    0.8654341834438272 N
   0.9773334072980928    0.9614860585802785    0.6335833794025518 N
   0.0240208975296019    0.9496514812570580    0.8671269030925083 N
   0.6126202126130167    0.1390929797035544    0.4777931846316004 O
   0.3853003024233425    0.1452803731183009    0.0229047353249360 O
   0.1103219141175535    0.6507548712964205    0.4753504731366026 O
   0.8887873967829100    0.6460216373925844    0.0215161963417676 O
   0.3884619029562785    0.8564987482907500    0.5213093201211727 O
   0.6141617973889407    0.8527063125978255    0.9779852676884413 O
   0.8878370193841860    0.3590883447959869    0.5262227274027212 O
   0.1105592350466333    0.3553424129525176    0.9727067161056773 O
