H96 C88 N16 O8
1.0
  14.9466859165839328    0.0000000000000000   -7.4769135584806277
  -0.0000000000000005    7.3864000000000001    0.0000000000000005
   0.0000000000000000    0.0000000000000000   17.5904999999999987
H C N O
96 88 16 8
direct
   0.3006278003888578    0.1757038192205055    0.1514623417611280 H
   0.6993504009980644    0.1789304436466718    0.3466464953042137 H
   0.7971205793913749    0.6695449830022970    0.1540179673357037 H
   0.1991141055950868    0.6678666274513965    0.3453722743161750 H
   0.7020373125276014    0.8269920747428720    0.8501429708440433 H
   0.3006243093791799    0.8210909441592094    0.6532165597239553 H
   0.1985430215240150    0.3291923491836107    0.8476273088993573 H
   0.8015723259472954    0.3305522667184531    0.6550681435546561 H
   0.4232024389207378    0.3561840460039145    0.2333373156899100 H
   0.5764372022190339    0.3629155330876002    0.2652687421395649 H
   0.9174717929257719    0.8580974932731670    0.2311059593467996 H
   0.0819954552922325    0.8632400453168040    0.2668857069870621 H
   0.5809629398747452    0.6349039807892431    0.7663172047349842 H
   0.4182362774313567    0.6400269069933893    0.7341064166488812 H
   0.0805536588749548    0.1464353375181026    0.7675942511290132 H
   0.9188028601069180    0.1422614809955769    0.7345550980626038 H
   0.7267213089454798    0.4390090473974257    0.4879062670522873 H
   0.2775536042716826    0.4311494399782409    0.0138348065717300 H
   0.2248938163237478    0.9330344547790521    0.4830050505752506 H
   0.7764047906983144    0.9398338343781509    0.0159590588309086 H
   0.2759393618431633    0.5670204344225696    0.5118617061570522 H
   0.7261012345458053    0.5719900800609012    0.9860627397241113 H
   0.7778245518784487    0.0624341387851670    0.5162742458920981 H
   0.2254898012322628    0.0723456152091559    0.9858478243110849 H
   0.7106988184405186    0.7574896451046875    0.4100726039439813 H
   0.2874421451645582    0.7522269946608595    0.0844988469216504 H
   0.2110684450266619    0.2623225766715043    0.4118501228747294 H
   0.7862226159037369    0.2609470458710266    0.0844640698962345 H
   0.2844724257430775    0.2455541777295292    0.5848842687255169 H
   0.7137885765372877    0.2496688610154917    0.9142297717458335 H
   0.7861386349710645    0.7494670365986803    0.5868630832850898 H
   0.2136044844800396    0.7473538485418496    0.9158444325434955 H
   0.6359181880633127    0.8561976248391171    0.4240842263488984 H
   0.3650354981319969    0.8584899497077697    0.0725224901011511 H
   0.1329746045672608    0.3486498047017368    0.4250146027629566 H
   0.8697679027425519    0.3526022465505770    0.0765757078132443 H
   0.3656907255085101    0.1430898525486411    0.5722467123900971 H
   0.6356164056643985    0.1398431382648096    0.9254697674558071 H
   0.8634389122034973    0.6457156970991881    0.5734454601823330 H
   0.1354566473645654    0.6396009058243802    0.9259866423049704 H
   0.6210835829846340    0.7899786165409971    0.3349174663400482 H
   0.3832079260449090    0.7852844988048950    0.1694494798994499 H
   0.1155606100153978    0.2948463549995887    0.3306942726942315 H
   0.8803030208329254    0.2932627660046533    0.1691751059499907 H
   0.3847195012766588    0.2118302461916340    0.6676979472632500 H
   0.6173539489170049    0.2146362163797676    0.8337128545063025 H
   0.8796795342182291    0.7064972380642903    0.6684266664121125 H
   0.1201252736809150    0.7145763253123079    0.8337183346050551 H
   0.4007039533851980    0.6447769556395196    0.3174649300369561 H
   0.6024527276076370    0.6362347633339763    0.1812761910708091 H
   0.8960317817610498    0.1367728047057955    0.3170782350899725 H
   0.1036090600921826    0.1416477051456680    0.1859088155183253 H
   0.6004917514231016    0.3600204167337106    0.6800089789856639 H
   0.4015785240640506    0.3639528643032077    0.8177844943831249 H
   0.1000025985309323    0.8657372206595573    0.6840354228849579 H
   0.8993323524863470    0.8539599568842795    0.8172978724087911 H
   0.4745965113349037    0.7985085552460651    0.3394210070631828 H
   0.5251354971689745    0.7986799379995692    0.1572043004642958 H
   0.9713825358148962    0.2988272074085899    0.3378134609201471 H
   0.0298215723228660    0.2988574007143522    0.1598189201976386 H
   0.5265756587397672    0.2115576488116498    0.6598818485481337 H
   0.4754531757854821    0.2053490145954882    0.8399590829287364 H
   0.0291939827876899    0.7106169962104736    0.6607554430720757 H
   0.9696854718877035    0.7040263143467697    0.8379718464141414 H
   0.4554046904017054    0.6994894178034734    0.4112834649204291 H
   0.5417497530493460    0.7014096659746979    0.0875312012599950 H
   0.9550638311955486    0.1923174867584886    0.4138071211209650 H
   0.0431167291799446    0.1956692869560129    0.0890340004985588 H
   0.5403019276286816    0.3065648055219938    0.5867788689492138 H
   0.4603552421041219    0.2999771852996851    0.9151409170224264 H
   0.0414889628524879    0.8034967422132537    0.5882797680080053 H
   0.9545429343888220    0.8019902763571962    0.9139111250907775 H
   0.4336491226348646    0.1482241425656610    0.4525713032016560 H
   0.5656096395133976    0.1445665815325952    0.0498195447407218 H
   0.9314554672872210    0.6514988148671732    0.4514582128323613 H
   0.0660558525369819    0.6492624443320353    0.0480572035217481 H
   0.5683634039435369    0.8522694901060418    0.5473353724884166 H
   0.4317848970556837    0.8544735387627205    0.9471980613823587 H
   0.0680143508247894    0.3597168069999993    0.5513841400553512 H
   0.9343367090756854    0.3513965981896217    0.9514553316614457 H
   0.3119661325711577    0.9614788046984135    0.3683026020747346 H
   0.6894550213731813    0.9580693253971706    0.1281888926948225 H
   0.8125921242170615    0.4602066879891093    0.3707037600049529 H
   0.1917279095198368    0.4592905836080844    0.1289590819573929 H
   0.6908269631393168    0.0456233350894057    0.6298087978189008 H
   0.3090943010157042    0.0334984947934527    0.8676891774007428 H
   0.1905623173031729    0.5330911045088885    0.6315015066677373 H
   0.8112529968738503    0.5345133159418705    0.8702606829296332 H
   0.2451461078132049    0.9644991646225739    0.2219595562719436 H
   0.7559492629099858    0.9726968198866299    0.2768116240174887 H
   0.7423791671248918    0.4665203598766228    0.2182084265202539 H
   0.2545920075463334    0.4643520592804705    0.2783722251312861 H
   0.7532354603715060    0.0323685558653552    0.7798154171433036 H
   0.2423403996807148    0.0344560019489705    0.7188728443869682 H
   0.2564817398725927    0.5355668199141627    0.7806980723380631 H
   0.7413632971207958    0.5293548307977201    0.7207128041067282 H
   0.5991062055304343    0.3010612373533086    0.4509381827108445 C
   0.3998763173373437    0.3048149581433021    0.0492465402361016 C
   0.0974527841136001    0.7965611464757444    0.4461423239342385 C
   0.9002567082223817    0.7964936238073475    0.0538580345497331 C
   0.4013081970122159    0.7012528443283829    0.5546379749393237 C
   0.6001807723593051    0.7036609117188680    0.9507873244462526 C
   0.8976107268256752    0.2028562860437647    0.5513152055309840 C
   0.0965345243585398    0.2009360546846901    0.9463136240057145 C
   0.3267767407289675    0.1604170663770781    0.2134640129161367 C
   0.6707879907206304    0.1691509059638008    0.2847206745845532 C
   0.8242649433170479    0.6704071211886814    0.2105846974758853 C
   0.1756007680569664    0.6623648109358975    0.2888857728084492 C
   0.6767440922030507    0.8320045779598721    0.7865703758556383 C
   0.3262310563459194    0.8394041812420795    0.7124686303432497 C
   0.1762915543083436    0.3340478765369527    0.7858676754048383 C
   0.8236123264061490    0.3373551591459888    0.7123670420477103 C
   0.3957125752633680    0.2769806488104377    0.2578758416988334 C
   0.6009372293869772    0.2731401920851382    0.2409614607472592 C
   0.8991328912971402    0.7801248273847168    0.2583913264632240 C
   0.0998776392683817    0.7769573685977463    0.2361861565521433 C
   0.6049403767144624    0.7228965289858680    0.7406614981283323 C
   0.3985407344343877    0.7236622078824171    0.7635096590929527 C
   0.1009353835399420    0.2160045796692980    0.7401296498719319 C
   0.8990426882995787    0.2154597527917491    0.7608557513494667 C
   0.6639909018674121    0.4420656549590105    0.4532264036037209 C
   0.3415402907494752    0.4412308118142461    0.0479269052392873 C
   0.1604209362301432    0.9441455780405602    0.4558624484996268 C
   0.8357362846110545    0.9364100312770441    0.0448913942036818 C
   0.3363275623893293    0.5644048721851561    0.5441356766140969 C
   0.6639243185090240    0.5543726564490299    0.9554024639492569 C
   0.8386923672261045    0.0543103569423339    0.5440767460832375 C
   0.1649783669471557    0.0601895497096286    0.9558293788459146 C
   0.6140734982354721    0.5858474073921306    0.4092690901481001 C
   0.3864560111438305    0.5847067863152101    0.0909430903927155 C
   0.1155084777965733    0.0767678514674577    0.4065001951368136 C
   0.8844319895090561    0.0783683690698034    0.0945529210190575 C
   0.3868091001089757    0.4189889322937388    0.5913134337401390 C
   0.6150326879334581    0.4106268324199900    0.9061358826806113 C
   0.8878478965165703    0.9208023240346540    0.5942713280463845 C
   0.1175010358562956    0.9131502738175705    0.9090075432755774 C
   0.6486997031579632    0.7642170090919082    0.3912825406933422 C
   0.3541068301664776    0.7664432638424388    0.1060249324565482 C
   0.1441414313583594    0.2623289079017384    0.3920351573551211 C
   0.8527337960143081    0.2548533964921716    0.1068529849053585 C
   0.3527919104231186    0.2409935098174492    0.6095685597331826 C
   0.6484528763245865    0.2379037616184443    0.8962802817412910 C
   0.8506529182219137    0.7392888681853939    0.6037330913649065 C
   0.1492580481347267    0.7330295774045277    0.8931105779413512 C
   0.4602307175929226    0.6800615260435317    0.3578660034474927 C
   0.5452151733120134    0.6823224819986203    0.1426406740678519 C
   0.9571261805083865    0.1837013503953457    0.3608239881841168 C
   0.0443204609965868    0.1773370982064599    0.1438914349318911 C
   0.5424422045462732    0.3191475248763970    0.6384436835516413 C
   0.4552032101588422    0.3180383102105315    0.8563127389083578 C
   0.0420880875130307    0.8190051627143692    0.6382885334656515 C
   0.9572974574292378    0.8201269781851657    0.8614456286633800 C
   0.4408170935042377    0.2646753242662676    0.3499398154924778 C
   0.5626701169208076    0.2618495370025867    0.1521421998793617 C
   0.9386778715101135    0.7732595763683935    0.3509417474307477 C
   0.0653197416514342    0.7673644302619381    0.1527362133285860 C
   0.5603154265562659    0.7338679120252137    0.6527468089825645 C
   0.4364836138159567    0.7377141812216067    0.8484606579134315 C
   0.0589527284629526    0.2336493503937355    0.6490732374986882 C
   0.9362014346867696    0.2329761118106584    0.8457072861495637 C
   0.4036490247775142    0.1544298202604599    0.3912929933797860 C
   0.5969714124672090    0.1502963750939253    0.1136531926743413 C
   0.9077857120632082    0.6482264442163562    0.3906542023601662 C
   0.0969921153417744    0.6462259086382239    0.1096903602987483 C
   0.5976733216298858    0.8479544064282417    0.6134336158569998 C
   0.4030327851676074    0.8536632913587343    0.8903964428180769 C
   0.0968054820843872    0.3545651979270141    0.6122912217609775 C
   0.9045406162203944    0.3424858379886397    0.8890732526701635 C
   0.3347383879105457    0.0419072037358454    0.3403788715450149 C
   0.6703201823688749    0.0438008551171783    0.1586499772380251 C
   0.8306412135818163    0.5380433022423158    0.3427132166727563 C
   0.1649848129884703    0.5447817885052975    0.1578254453992922 C
   0.6707298991349784    0.9603809839516758    0.6589811577336810 C
   0.3304697123549539    0.9591339533672494    0.8381055880441363 C
   0.1669050137198927    0.4540538897094790    0.6601410551949709 C
   0.8307131062089028    0.4628782112189464    0.8386233424423413 C
   0.2906745125068687    0.0493145788068950    0.2505759233860505 C
   0.7084922193698223    0.0491919976882392    0.2497743032181975 C
   0.7906429853378022    0.5433873497644222    0.2521603792447476 C
   0.2081367894877519    0.5422235327546948    0.2486268595680867 C
   0.7090918648425275    0.9540135349467669    0.7458538478164332 C
   0.2949650687648559    0.9470057606618834    0.7531187318898143 C
   0.2091774768964242    0.4562681149825212    0.7488428313134647 C
   0.7927657864558036    0.4462981624031026    0.7520081531412709 C
   0.5150157988105650    0.3685582101448093    0.3984145514098267 N
   0.4869919732030539    0.3787073763240530    0.1035915305334788 N
   0.0143667767897752    0.8752586990349760    0.4017353286762291 N
   0.9868566677179376    0.8784736179264918    0.1036857988999517 N
   0.4859753425022360    0.6234787520758921    0.6039556384591905 N
   0.5144014864440167    0.6216167444147209    0.8964614027303680 N
   0.9880049339973278    0.1211008584774455    0.6016024946320481 N
   0.0129605609884990    0.1191574460632649    0.8982186126095374 N
   0.5252371943910181    0.5410692516470444    0.3646482205723194 N
   0.4767267934440463    0.5494267890017358    0.1346277119741250 N
   0.0261612085589078    0.0383704887025836    0.3687699584090382 N
   0.9752055478914852    0.0496164391513712    0.1315186296736363 N
   0.4756929842533176    0.4507978571964730    0.6315033655398528 N
   0.5262673290959102    0.4604094199605384    0.8694398194602388 N
   0.9770526622073585    0.9567298931460756    0.6361633408566072 N
   0.0268121649351150    0.9510701389562436    0.8684244916357691 N
   0.6084699146137739    0.1411469666144766    0.4742146578090407 O
   0.3866143964226398    0.1432889144149123    0.0211035931216992 O
   0.1109666417693789    0.6460539889708095    0.4783562349343771 O
   0.8894508187317234    0.6469052734463357    0.0220158454681436 O
   0.3892393306895083    0.8622577830886616    0.5241139052443713 O
   0.6123538483263823    0.8614305340651531    0.9749797866374194 O
   0.8907671633997968    0.3588405344974925    0.5268204286032072 O
   0.1137141755504039    0.3510972933509900    0.9760846837432449 O
