H96 C88 N16 O8
1.0
  14.9466859165839328    0.0000000000000000   -7.4769135584806277
  -0.0000000000000005    7.3864000000000001    0.0000000000000005
   0.0000000000000000    0.0000000000000000   17.5904999999999987
H C N O
96 88 16 8
direct
   0.2964730916391524    0.1752898331583347    0.1535457506560351 H
   0.7027533669289555    0.1787821801319888    0.3473367575714718 H
   0.8006515684135949    0.6731751388526737    0.1512303420365909 H
   0.1986844085141478    0.6779370083048475    0.3457279822128435 H
   0.6995357731951453    0.8234871403668219    0.8442615395517499 H
   0.3011339857907893    0.8318690427401277    0.6532452905766256 H
   0.1991112413466395    0.3249263836275667    0.8483919487828809 H
   0.7970179783559085    0.3223721812301439    0.6508814571132815 H
   0.4226390583332219    0.3598646725241778    0.2317134039721990 H
   0.5805986879429426    0.3541521892069414    0.2685126120829123 H
   0.9229549143761477    0.8580653796935924    0.2322349257396888 H
   0.0799399460588620    0.8572957895050168    0.2645462554133781 H
   0.5770309199117556    0.6448377075266946    0.7661567146382342 H
   0.4226405822665331    0.6350580781711402    0.7347360018325190 H
   0.0823714326902888    0.1412057628225373    0.7693833110613904 H
   0.9181469013458183    0.1390666514844044    0.7301740936058768 H
   0.7243532121113669    0.4395234136702362    0.4838203547176028 H
   0.2721684370518674    0.4327139803999013    0.0141502098732254 H
   0.2216001465202184    0.9345982810587598    0.4839479591401144 H
   0.7731193780832857    0.9345373660498270    0.0110696210067781 H
   0.2775221730254784    0.5620101269393700    0.5140283322400836 H
   0.7275951354620693    0.5623203880259180    0.9860393912855019 H
   0.7740058482881528    0.0682353819886882    0.5162010372468269 H
   0.2229844605268976    0.0603701964692682    0.9856350239561891 H
   0.7143863817006070    0.7564357883198833    0.4117572956181950 H
   0.2870040876677835    0.7518358906979571    0.0845095274772073 H
   0.2103883028920853    0.2587309412579062    0.4102956236711496 H
   0.7843734989431752    0.2580278199341834    0.0857385390428829 H
   0.2889309250561024    0.2497105855364556    0.5869000993386069 H
   0.7116015222806241    0.2457818841005613    0.9102568069492978 H
   0.7907502594672895    0.7435826903125508    0.5890952042418648 H
   0.2097445089483272    0.7394961598561477    0.9122080308444940 H
   0.6309637681388325    0.8569419073899271    0.4217929441142654 H
   0.3649023074579159    0.8500601691221310    0.0735845051230890 H
   0.1338716080402958    0.3487428147122323    0.4244308371177635 H
   0.8672634609967989    0.3496498021164033    0.0740491355134984 H
   0.3687003101600256    0.1458885801654763    0.5739272874936269 H
   0.6328770510758540    0.1403203390077712    0.9223828890316617 H
   0.8666642937308155    0.6406080632873601    0.5730207074327820 H
   0.1337054470330677    0.6496608131652806    0.9267753724367235 H
   0.6193655018159393    0.7849106257003586    0.3339445935232638 H
   0.3842816511443078    0.7892851006950083    0.1667067707396764 H
   0.1191149011365750    0.2967692220474594    0.3319143980257435 H
   0.8808480371498885    0.2971094256114507    0.1673452736073019 H
   0.3804772841796646    0.2033121430899067    0.6675394349971406 H
   0.6178111062334589    0.2062606533480252    0.8348051324369721 H
   0.8796885063004738    0.7106722005922803    0.6687133882426445 H
   0.1201029081633416    0.7106911320890128    0.8354517704314079 H
   0.3990287059101842    0.6391357160926515    0.3198662278477036 H
   0.6001781042485700    0.6449653330455681    0.1839306131297234 H
   0.9017171369097583    0.1402155300306467    0.3193613531269733 H
   0.0994382082020035    0.1358599537512256    0.1804736470184229 H
   0.6022192098906104    0.3545602886080731    0.6824721350378768 H
   0.3985814819237910    0.3635284320991478    0.8194103354143498 H
   0.1004176302110676    0.8541949377675127    0.6821922800919723 H
   0.9013521660755627    0.8570409391266376    0.8189033967914341 H
   0.4718391494310293    0.7982492052735102    0.3376747290478415 H
   0.5295301532274288    0.7956817269548286    0.1626409807314667 H
   0.9752856574479211    0.2953326341835661    0.3432933413710733 H
   0.0273182046525422    0.3012752542671986    0.1586523368270074 H
   0.5305505401144489    0.2061534995378816    0.6604764860614335 H
   0.4728139370330981    0.2084142631345103    0.8429249831384736 H
   0.0275567150835319    0.7028091523896064    0.6570433041694772 H
   0.9694091830261220    0.7062557123663241    0.8388426053636547 H
   0.4545425527140347    0.6935942559372175    0.4122177467609368 H
   0.5410285260793157    0.6961357887371996    0.0879226430250613 H
   0.9577955850589175    0.1982293808934355    0.4113890243029705 H
   0.0438670479380993    0.1973081192012063    0.0840090936145876 H
   0.5426302405772058    0.3093853005215929    0.5846553681468707 H
   0.4567698428607225    0.3098452163702233    0.9144613216888126 H
   0.0433897850294499    0.8027035611519696    0.5836586433837692 H
   0.9560771295700239    0.8049238199732484    0.9158972644844868 H
   0.4287890411490197    0.1492713522779494    0.4499669206125589 H
   0.5710199530246356    0.1507361725209559    0.0509222161695069 H
   0.9322633020798430    0.6523824360590911    0.4502015103325286 H
   0.0683206520179640    0.6435831601692856    0.0473875063360658 H
   0.5654873932289454    0.8547974376384037    0.5495707655980200 H
   0.4296344189388934    0.8514488613217307    0.9468926598201880 H
   0.0666846831355665    0.3569779008502775    0.5474232923811498 H
   0.9300184872445761    0.3590336005820240    0.9508683575357649 H
   0.3093547487695043    0.9622116097620603    0.3661096360592580 H
   0.6927515524838613    0.9587276610465904    0.1299136699644486 H
   0.8077558497338403    0.4656902721179381    0.3691649453688981 H
   0.1888479732910702    0.4597053077749272    0.1280548458373995 H
   0.6876612763096356    0.0374665525749464    0.6305811580428208 H
   0.3088441545177356    0.0335786421618599    0.8696573448221738 H
   0.1937412917505760    0.5379087593017634    0.6333706450917851 H
   0.8091395066956323    0.5451022581889039    0.8669700356674123 H
   0.2457689750860753    0.9766600949828456    0.2214390558983985 H
   0.7577499155835838    0.9759429416346150    0.2801615314518243 H
   0.7467026888701225    0.4736029882869627    0.2231448885574965 H
   0.2539573658687575    0.4735594681984172    0.2807431852525868 H
   0.7539074419337157    0.0341737983125674    0.7773184928030417 H
   0.2421110942432707    0.0303478590676579    0.7217818879461515 H
   0.2549312943612878    0.5264343365252254    0.7766030233207429 H
   0.7414279090540926    0.5289983867447861    0.7179316614027780 H
   0.6017068277834393    0.2966991005859947    0.4508322519768575 C
   0.3979551726896123    0.3041341280769310    0.0492718696344793 C
   0.0965783114307952    0.7980248052536897    0.4469755942282203 C
   0.8973757756235861    0.8033747781182128    0.0510019461943208 C
   0.3977864703719463    0.6964135059180294    0.5518819713944524 C
   0.5980824179055472    0.6935472965236559    0.9480164377196413 C
   0.8989700406361455    0.1952842541367307    0.5491116378889961 C
   0.1028074268626721    0.2017319340841176    0.9500350067555275 C
   0.3253114492975865    0.1606494145520525    0.2123366735159929 C
   0.6740739512704100    0.1606301381363803    0.2859510637850358 C
   0.8235347919558217    0.6673132946284603    0.2103827801848833 C
   0.1740876864447292    0.6700739978321063    0.2842890036879357 C
   0.6730080768217693    0.8263978839511913    0.7862731376467162 C
   0.3262058137266696    0.8390033609881389    0.7145604927118853 C
   0.1764550215413441    0.3363298182494065    0.7867415237694315 C
   0.8287358455716339    0.3326316364442252    0.7125851842980160 C
   0.3981677077520078    0.2739410547508340    0.2582942445999052 C
   0.5986187473583708    0.2757015628728945    0.2388905622082311 C
   0.8963617821075034    0.7827000526597583    0.2587766855190267 C
   0.1044258192522098    0.7798493313191591    0.2418288118632053 C
   0.6031399479919004    0.7237667628283515    0.7375338253746846 C
   0.3977459239267458    0.7247041080236934    0.7578444962257012 C
   0.0993728446683483    0.2189085786178718    0.7399924071306186 C
   0.8966732339049264    0.2251408548497256    0.7620366259112312 C
   0.6584565849939622    0.4393181638365716    0.4533879087513450 C
   0.3377198731481985    0.4463522084798845    0.0440923429729751 C
   0.1646505601518970    0.9375986420791514    0.4553529020962735 C
   0.8361961145822804    0.9354870363297246    0.0446217243280696 C
   0.3362938621383871    0.5590569460850501    0.5426824047362017 C
   0.6595944550330052    0.5595009653903504    0.9510896321027693 C
   0.8389495231306993    0.0652730140306834    0.5448001257647479 C
   0.1613683774330741    0.0634740780864294    0.9518356519443378 C
   0.6120238079031212    0.5807160875340861    0.4069933569229602 C
   0.3876196078648251    0.5819875381064095    0.0921199833368655 C
   0.1117264566408416    0.0811214732495432    0.4062418339422896 C
   0.8832005574742532    0.0776646526598701    0.0925727533808976 C
   0.3861297160777958    0.4224915519798974    0.5919517278113190 C
   0.6147690581967529    0.4170735811748280    0.9099029914348414 C
   0.8876995590438269    0.9168764420374970    0.5957961241490672 C
   0.1138738379410651    0.9113934441123935    0.9080834547229486 C
   0.6458060733727620    0.7658920838109222    0.3907497146228835 C
   0.3557029633763657    0.7622138196965664    0.1072749047638187 C
   0.1479672273851944    0.2550434372109692    0.3939021323662795 C
   0.8555350797478599    0.2607675901937906    0.1068855785584956 C
   0.3547180110290530    0.2406430586278470    0.6097185331940753 C
   0.6473904717244052    0.2407164247157956    0.8957935210928035 C
   0.8497036953236256    0.7409194161281625    0.6066900150959121 C
   0.1486309551807038    0.7347213918369613    0.8914841426871517 C
   0.4558543954054620    0.6820077379479087    0.3559672886961334 C
   0.5420535655848523    0.6761060255218296    0.1387111905203789 C
   0.9594616740740202    0.1783986581344430    0.3571350435751425 C
   0.0432765505744818    0.1737936777030479    0.1423757368851190 C
   0.5416961985719373    0.3136207127053982    0.6416037649479986 C
   0.4579768930889406    0.3214493424730334    0.8561491486711464 C
   0.0417714954362260    0.8194272612934663    0.6381441459120680 C
   0.9556058387792933    0.8170837708253877    0.8595617765922320 C
   0.4364216436237093    0.2624164193685918    0.3476736792985479 C
   0.5616076613306328    0.2622264053584898    0.1522354161507980 C
   0.9389098990265511    0.7629770381227104    0.3507794080955784 C
   0.0650717274991954    0.7702931921868378    0.1517143267384440 C
   0.5653287294159544    0.7311192425521692    0.6523438623672303 C
   0.4408382993571411    0.7296025686842483    0.8512202597099953 C
   0.0591357427651078    0.2284757430854423    0.6504883084897357 C
   0.9347110423570506    0.2309654235102789    0.8469481096235469 C
   0.4062324089681591    0.1461445483784553    0.3917570120797799 C
   0.5938898707569336    0.1493495790815882    0.1123941679503743 C
   0.9034554801025773    0.6509957261077539    0.3863437486465574 C
   0.0950238644290842    0.6451283437212564    0.1088453729361487 C
   0.5921666441479244    0.8514838451183780    0.6089066704554059 C
   0.4061197509555415    0.8538026066468442    0.8884185694065906 C
   0.0954706968059511    0.3452756504903007    0.6082480789657515 C
   0.9025474848479956    0.3469884570082931    0.8866253810487978 C
   0.3349211419116363    0.0394773782089010    0.3406681603505435 C
   0.6654106122047362    0.0361784367282103    0.1585361469481435 C
   0.8351310841096522    0.5371536555892013    0.3423248190989689 C
   0.1663673523248785    0.5395772430847665    0.1556193401891346 C
   0.6644524890822472    0.9578835409849528    0.6568605451444784 C
   0.3352370489442152    0.9605079862478311    0.8412233360287444 C
   0.1698408695582297    0.4566701508738122    0.6615528594138148 C
   0.8322401059297295    0.4649363049428736    0.8397251467953821 C
   0.2914471787381225    0.0418812754938204    0.2526778844630522 C
   0.7096940113167468    0.0453310975783168    0.2471105685223272 C
   0.7917835336397677    0.5494842569590215    0.2502427426542072 C
   0.2042017112586527    0.5434362354884733    0.2448448477740662 C
   0.7066039502939836    0.9570206063168453    0.7445650532998705 C
   0.2906896820459252    0.9547168672839170    0.7536848884948412 C
   0.2088626122288877    0.4572703562905195    0.7468083625997167 C
   0.7949889577206245    0.4559744526474466    0.7520252353350952 C
   0.5179098362171931    0.3736148772708723    0.4008483450345252 N
   0.4846870048818421    0.3801360793799511    0.0988989948094928 N
   0.0121075971640826    0.8748240783311667    0.3997614301666461 N
   0.9862712098851730    0.8767218362911631    0.1039963265061841 N
   0.4847313066217386    0.6245354131656704    0.5979173759987706 N
   0.5169463911635745    0.6284755121444699    0.9014838102096190 N
   0.9841495107871490    0.1189703244401493    0.6013368438559487 N
   0.0134968276557442    0.1216206433969241    0.8962782086372350 N
   0.5270872773812189    0.5432571467107076    0.3660013431807374 N
   0.4776360856962016    0.5460545098105622    0.1357956473755322 N
   0.0274912674942146    0.0472560536583494    0.3688318209189971 N
   0.9723838024764226    0.0465351562277556    0.1326239268147665 N
   0.4753116178832359    0.4600005240436114    0.6353725953787414 N
   0.5251889509665867    0.4521378064933577    0.8649475816956792 N
   0.9752114225837296    0.9629574772872408    0.6329541997644079 N
   0.0231974067696274    0.9548396976098966    0.8638761983639761 N
   0.6097516664627216    0.1487260442085142    0.4734554403628783 O
   0.3864487365666689    0.1392041192500146    0.0235081698545983 O
   0.1119395099129359    0.6396548055203114    0.4740458244585233 O
   0.8875376460930710    0.6387243540605266    0.0224346538551149 O
   0.3893377828222765    0.8498782807977217    0.5258420641136455 O
   0.6140022552165207    0.8597033530962257    0.9764007029520826 O
   0.8917177337122476    0.3574167100901260    0.5262608372317826 O
   0.1117031966090885    0.3622507175843441    0.9753518418690270 O
