H96 C88 N16 O8
1.0
  15.3775637141165458    0.0000000000000000   -7.6924553892516441
  -0.0000000000000005    7.5993325377850907    0.0000000000000005
   0.0000000000000000    0.0000000000000000   18.0975927388049165
H C N O
96 88 16 8
direct
   0.3106999697427738    0.1714362297869177    0.1507250473203973 H
   0.7036214142554262    0.1685310065884485    0.3581573910773174 H
   0.8055416861743750    0.6635929450288944    0.1648595049082871 H
   0.1986600184993947    0.6580125963064637    0.3425523480134676 H
   0.7001916817935134    0.8260779366467381    0.8463767259418064 H
   0.3031430227605340    0.8150797896957629    0.6506023657650997 H
   0.2068982891912101    0.2934109269288960    0.8480539347549778 H
   0.8027435648837247    0.3279506064099714    0.6471568053342398 H
   0.4139974436696242    0.3652692850187851    0.2349187794319704 H
   0.5828906423371768    0.3745276562610572    0.2708666931777231 H
   0.9325795533601685    0.8703750444187124    0.2485744279975156 H
   0.0887499183406807    0.8822303051967608    0.2676144579404273 H
   0.5775188482972915    0.6394739001825877    0.7763296066159719 H
   0.4167897468266336    0.6437320097634097    0.7348384985481733 H
   0.0914019878931514    0.1268827860943846    0.7759130709371995 H
   0.9268085188200500    0.1628890198090056    0.7306095823002998 H
   0.7234578273521945    0.4198857354308293    0.4968414377504237 H
   0.2760495328392478    0.4161268237750090    0.0146263108270873 H
   0.2301822319497371    0.9540715788586878    0.4861914988050484 H
   0.7640411008404413    0.9488408065406444    0.0097350697879315 H
   0.2695844285773721    0.5544567752697335    0.5116105646386414 H
   0.7136355037386595    0.5711936363773676    0.9748127332392063 H
   0.7725522526282415    0.0726470380350109    0.5131461921487928 H
   0.2228146304981286    0.0615059410936448    0.9769919224170641 H
   0.7046693661996862    0.7461692577196465    0.4173077772300169 H
   0.2874734326409833    0.7618544256435568    0.0860809989152659 H
   0.2053206838533376    0.2427867447928041    0.4091521944006761 H
   0.7930992487266139    0.2427449302069167    0.0891981330228234 H
   0.2959191139199555    0.2267962188220034    0.5887675469233317 H
   0.7037143449766239    0.2200714449464846    0.9074034676415640 H
   0.7850105983538599    0.7334889002972275    0.5868942120705064 H
   0.2225661517297144    0.7386839723359625    0.9182878766395791 H
   0.6320208649883911    0.8442206654337776    0.4333561811783004 H
   0.3715402157626316    0.8503515066186532    0.0809643305146053 H
   0.1361461153299978    0.3470795237468456    0.4251455339103556 H
   0.8781387660175414    0.3389773096917243    0.0890465860231442 H
   0.3712370485108066    0.1457728265351074    0.5876140800002408 H
   0.6324209358551751    0.1609809515491936    0.9316520315265507 H
   0.8620572164776938    0.6522916465364190    0.5718364668589986 H
   0.1232539010437324    0.6496365221593864    0.9226921142943485 H
   0.6074261930686172    0.7733050532481376    0.3274386602265735 H
   0.3808945288894272    0.7628852813854921    0.1668229491760587 H
   0.1212858689061986    0.3129628465020872    0.3335709567879841 H
   0.8826835773715386    0.2925597638196639    0.1677410471570026 H
   0.3745210360888740    0.2127918331129899    0.6761975925518142 H
   0.6188054170373130    0.2254225720839592    0.8356260883866157 H
   0.8771217539046134    0.7117461162610822    0.6731548870310997 H
   0.1218355795148744    0.7158972729394704    0.8426976227381687 H
   0.3990512235860932    0.6342325200937108    0.3243937093510107 H
   0.6111999322350506    0.6545424428219371    0.1864348172923602 H
   0.9114919317123874    0.1213502609754971    0.3240318964677372 H
   0.0984324323409625    0.1432197237085285    0.1895810609826626 H
   0.5991551653080618    0.3674419881382295    0.6793486781002528 H
   0.3906383920905928    0.3753148663357388    0.8081093927067804 H
   0.0955863013608073    0.8751701319918781    0.6776265833844423 H
   0.8980631978846231    0.8554447779621839    0.8097954646521458 H
   0.4673946602928065    0.8026633779814706    0.3391160198178261 H
   0.5178469028531222    0.7971625553782400    0.1632383981490343 H
   0.9651107047978769    0.2916786369317902    0.3361795727725315 H
   0.0261975721654845    0.2812362980586420    0.1546742674271309 H
   0.5208751973212269    0.1937001534887589    0.6525456319057424 H
   0.4786402263125448    0.2053675535302075    0.8500330024676744 H
   0.0279747016577915    0.7076676039434686    0.6633436356453386 H
   0.9733569270118628    0.6904963193453060    0.8492736461919529 H
   0.4514632467495384    0.6908131934363796    0.4103712101204114 H
   0.5454768375117313    0.7093983798836491    0.0889273830886980 H
   0.9466198421401532    0.1920457026397585    0.4088626481239855 H
   0.0522573308142023    0.1998615811165325    0.0874739482677105 H
   0.5448321575462308    0.3110613000991017    0.5736362257021681 H
   0.4623224065552984    0.3133311295208799    0.9129012402322860 H
   0.0431040486043319    0.8225893730409409    0.5934277249121100 H
   0.9673532536921631    0.8041881350562733    0.9103919431743436 H
   0.4372070383817426    0.1496755974638456    0.4466886150392601 H
   0.5570169082122072    0.1433502719593141    0.0398387460535077 H
   0.9333013467155820    0.6374331523282701    0.4491326261444168 H
   0.0709611000174485    0.6574937606333383    0.0514913092426355 H
   0.5644050276894645    0.8328774112914731    0.5428199822552935 H
   0.4286542872588505    0.8692106116950528    0.9549979046366001 H
   0.0761208279447982    0.3660929260201120    0.5546618557864749 H
   0.9247373480455208    0.3362498321490215    0.9402015337377004 H
   0.3110220454005621    0.9471521986139972    0.3665347124605680 H
   0.6883235354498718    0.9522789283182647    0.1402015811873825 H
   0.8083104887137812    0.4757502865727667    0.3596056732379783 H
   0.1867808892593246    0.4290719714493629    0.1311989321448232 H
   0.6916283688937714    0.0415704666413887    0.6343094148219779 H
   0.3139205558378457    0.0290381260986913    0.8693843141861739 H
   0.1880367346440948    0.5373567573572176    0.6308748655273171 H
   0.8044208310145242    0.5388555135362518    0.8743291805452036 H
   0.2389792482913032    0.9832558579419911    0.2175294753353543 H
   0.7449220822382925    0.9698832762526599    0.2659102073975846 H
   0.7540156509292830    0.4808168144008588    0.2272105678972807 H
   0.2607445206587271    0.4746378156617940    0.2857857231338413 H
   0.7564490080254604    0.0471835276490978    0.7742443906431328 H
   0.2414821336831137    0.0259600022690797    0.7167987086760431 H
   0.2690273774203606    0.5209475241778867    0.7857894236420171 H
   0.7377015274014033    0.5338405684114291    0.7167656253200773 H
   0.5981564735307376    0.2942177977079086    0.4557150301883148 C
   0.4081648278398139    0.2839591728290214    0.0614187565370395 C
   0.0954449240301861    0.8007395270346634    0.4423519518361156 C
   0.9079433652009903    0.8208769564159560    0.0443939205375644 C
   0.4024851428758399    0.7153878799664296    0.5472356211716652 C
   0.5953566549013179    0.7041447339450249    0.9513470800997219 C
   0.8905482909647024    0.1953836450096729    0.5444526439152981 C
   0.1032528688497369    0.2060468548478890    0.9538887614854110 C
   0.3272214879509758    0.1685847445078532    0.2111237663369270 C
   0.6732661692866172    0.1928255090571858    0.2928685356710387 C
   0.8248732151135818    0.6788314516686430    0.2153887281510816 C
   0.1745072190639103    0.6763120751718403    0.2801809440783479 C
   0.6700593949785977    0.8311854919140221    0.7853929397996688 C
   0.3099657533331709    0.8225436558254632    0.7051086900675555 C
   0.1867897095231258    0.3193261927666172    0.8002590945816770 C
   0.8094111985730736    0.3284090429238049    0.7014794929039281 C
   0.3967804456031587    0.2685220841800873    0.2612874466013120 C
   0.6020876558181406    0.2681807955932436    0.2398188782636520 C
   0.8949850179093882    0.8017449856208517    0.2494176080897859 C
   0.1079050892889218    0.7767224718836985    0.2378739022115261 C
   0.5992415582838004    0.7273423988665433    0.7399544079060585 C
   0.3967612862969349    0.7223505319457499    0.7639607486802809 C
   0.1010056246964278    0.2323745654640229    0.7466237352176535 C
   0.8962863260750482    0.2242845518905418    0.7646407930636988 C
   0.6595818307138589    0.4316555099904927    0.4580000040286264 C
   0.3318640770835652    0.4538072823428593    0.0421896875001679 C
   0.1615998279748092    0.9317197788343510    0.4588943616671342 C
   0.8374661424050821    0.9507643427217425    0.0406323746099319 C
   0.3385382178149146    0.5590309901741651    0.5480520527759908 C
   0.6721545392772224    0.5664275193643337    0.9620799118504969 C
   0.8262408090551520    0.0553420847834507    0.5396304114030099 C
   0.1552309482651914    0.0631979751878012    0.9547186860428516 C
   0.6169220064670600    0.5857088947141584    0.4009792895912077 C
   0.3916830250037203    0.5790260205072675    0.0958029285270370 C
   0.1231139998849904    0.0545362868582068    0.4119356236308995 C
   0.8818242411837305    0.0982262498141459    0.0950846158926634 C
   0.3772209694470785    0.4161276821027898    0.5849159163553549 C
   0.6195295644986684    0.4011442630512949    0.9179243082788693 C
   0.8786556286623797    0.9248647400405294    0.5918717780855303 C
   0.1171423134523053    0.9077864472271359    0.9021979192995093 C
   0.6414583052391556    0.7630314580843830    0.3897170100188330 C
   0.3485714454458796    0.7694592170567799    0.1133204253427453 C
   0.1466345304538740    0.2526184768472159    0.3926618372257945 C
   0.8479038910232456    0.2542430723919071    0.1021165982721537 C
   0.3422378826433653    0.2505124689778516    0.5980479363630957 C
   0.6492395577776953    0.2300594803041392    0.8957568780813263 C
   0.8526196018966786    0.7102783566718591    0.6087076945891347 C
   0.1477095003737841    0.7358538170080333    0.8912622001572120 C
   0.4567708459559379    0.6811210004278467    0.3530087083303525 C
   0.5418824419262478    0.6723825151213674    0.1421446539973797 C
   0.9501585474622390    0.1891291347866859    0.3569523905422163 C
   0.0341161466123899    0.1926034943583234    0.1373374329779305 C
   0.5478175129516505    0.3173433091778534    0.6507661174600445 C
   0.4620947561748653    0.3342693083234717    0.8521700353466475 C
   0.0391322097205733    0.8344136960998485    0.6421492008208286 C
   0.9636419939258023    0.8208373834257590    0.8609550014822063 C
   0.4325473653010724    0.2765449985305634    0.3401676752371589 C
   0.5516550701110521    0.2414767767051160    0.1420154009509659 C
   0.9385443069451557    0.7609538729524864    0.3517188579045314 C
   0.0622225849739003    0.7574192607365851    0.1461598266575680 C
   0.5631516992741810    0.7457866905810133    0.6638647444233138 C
   0.4366533668166807    0.7371905579048628    0.8434267511726266 C
   0.0688186147644836    0.2360335467775097    0.6464130966147906 C
   0.9343309307413405    0.2196716447766536    0.8517445653777485 C
   0.4100340983377425    0.1529842953675432    0.3869819536311325 C
   0.5914303509439569    0.1324952872623574    0.1075455254396846 C
   0.9112658705942942    0.6600727386754656    0.3872251711893921 C
   0.0964181785003972    0.6244043263644238    0.1081147179425178 C
   0.5938773373680321    0.8548688602197207    0.6044121634625846 C
   0.3907727569490574    0.8682954352566506    0.8801868607080990 C
   0.1032397980758611    0.3472718238178966    0.6155146778551982 C
   0.8952734034135217    0.3551786252308556    0.8888224752497125 C
   0.3285362631054510    0.0448335775739570    0.3268336505842930 C
   0.6635602820364542    0.0560153553816838    0.1590192849550335 C
   0.8212598992583576    0.5498886688538722    0.3422326758463951 C
   0.1637609280762179    0.5509841272739854    0.1720581578445722 C
   0.6744118635244125    0.9591758239448647    0.6708648370191526 C
   0.3313961554822876    0.9752005930324672    0.8421264029542888 C
   0.1586940546404602    0.4608832762869428    0.6675738038570292 C
   0.8376778968871904    0.4645272205201346    0.8484661741545592 C
   0.2971026997841575    0.0429547539950695    0.2558236903571440 C
   0.7082003407680380    0.0318868757480959    0.2434018940915043 C
   0.7852170005824850    0.5558385609321774    0.2524535822740442 C
   0.1963893560783768    0.5536576083471807    0.2423130045967424 C
   0.7103826238106431    0.9723707252259496    0.7520606588775427 C
   0.2818973966243738    0.9791062430591121    0.7535042785852542 C
   0.2021452065619819    0.4430148644854510    0.7376236489566950 C
   0.7877970422225461    0.4424949270170281    0.7488773537056986 C
   0.5209743937926478    0.3860290340289673    0.4050321509368366 N
   0.4864153145481978    0.3586068474493552    0.1071705958044838 N
   0.0137497454334170    0.8476581834609820    0.4028055577101313 N
   0.9911681054936123    0.8736190343610665    0.1021336109978997 N
   0.4887994471327695    0.6082507769807233    0.5947674855132888 N
   0.5081890469422262    0.6328655741429191    0.8848295852694089 N
   0.9887773843853539    0.1367795586470602    0.6004408390801794 N
   0.0239632682768802    0.1112333172465293    0.8986336674788824 N
   0.5216647219208935    0.5262073215754209    0.3743969029727791 N
   0.4657660145888817    0.5623826657663880    0.1281001036065733 N
   0.0301041762531388    0.0542255209685961    0.3680426706310674 N
   0.9719781107331459    0.0263793405924858    0.1444006250424512 N
   0.4819725269639943    0.4306915620263438    0.6330705538284220 N
   0.5314216123688202    0.4890535127562725    0.8664756502286464 N
   0.9664067453154246    0.9397485237690375    0.6262269435966091 N
   0.0224004104332828    0.9473323171390872    0.8567260758599466 N
   0.6183247750726304    0.1359810326397178    0.4719943840926258 O
   0.3821073409816265    0.1331518125238196    0.0195402113991946 O
   0.1213458320831933    0.6451414579281001    0.4776156828200742 O
   0.8850892280628108    0.6358359486641787    0.0300456236683242 O
   0.3893454178155637    0.8281697955546481    0.5158038090751197 O
   0.6055542223489697    0.8353157175830520    0.9715419155865668 O
   0.8850375368588318    0.3526199600595989    0.5121362471511407 O
   0.1115963281402124    0.3562742638656770    0.9757332002689273 O
