H96 C88 N16 O8
1.0
  14.9466859165839328    0.0000000000000000   -7.4769135584806277
  -0.0000000000000005    7.3864000000000001    0.0000000000000005
   0.0000000000000000    0.0000000000000000   17.5904999999999987
H C N O
96 88 16 8
direct
   0.2990000000000000    0.1731000000000000    0.1530000000000000 H
   0.7010000000000001    0.1731000000000000    0.3470000000000000 H
   0.7989999999999999    0.6731000000000000    0.1530000000000000 H
   0.2010000000000000    0.6731000000000000    0.3470000000000000 H
   0.7510818697410210    0.6006600818134663    0.8682875023962197 H
   0.2990000000000000    0.8269000000000000    0.6530000000000000 H
   0.2010000000000000    0.3269000000000000    0.8470000000000000 H
   0.7989999999999999    0.3269000000000000    0.6530000000000000 H
   0.4206000000000000    0.3599000000000000    0.2331000000000000 H
   0.5794000000000000    0.3599000000000000    0.2669000000000000 H
   0.9206000000000000    0.8599000000000000    0.2331000000000000 H
   0.0794000000000000    0.8599000000000000    0.2669000000000000 H
   0.5996164764824525    0.5619178511986613    0.7754930955411361 H
   0.4206000000000000    0.6401000000000000    0.7331000000000000 H
   0.0794000000000000    0.1401000000000000    0.7669000000000000 H
   0.9206000000000000    0.1401000000000000    0.7331000000000000 H
   0.7249000000000000    0.4343000000000000    0.4858000000000000 H
   0.2751000000000000    0.4343000000000000    0.0142000000000000 H
   0.2248999999999999    0.9343000000000000    0.4858000000000000 H
   0.7751000000000000    0.9343000000000000    0.0142000000000000 H
   0.3177013337479810    0.8053673793917259    0.5323078701520502 H
   0.7249000000000000    0.5657000000000000    0.9858000000000000 H
   0.7751000000000000    0.0657000000000000    0.5142000000000000 H
   0.2248999999999999    0.0657000000000000    0.9858000000000000 H
   0.7124000000000000    0.7564000000000000    0.4132000000000000 H
   0.2876000000000000    0.7564000000000000    0.0868000000000000 H
   0.2124000000000001    0.2564000000000000    0.4132000000000000 H
   0.7876000000000000    0.2564000000000000    0.0868000000000000 H
   0.2489384585254020    0.5137734633199984    0.5703667545753002 H
   0.7124000000000000    0.2436000000000000    0.9132000000000000 H
   0.7876000000000000    0.7436000000000000    0.5868000000000000 H
   0.2124000000000001    0.7436000000000000    0.9132000000000000 H
   0.6333000000000000    0.8552999999999999    0.4247000000000000 H
   0.3667000000000000    0.8552999999999999    0.0753000000000000 H
   0.1333000000000000    0.3552999999999999    0.4247000000000000 H
   0.8667000000000000    0.3552999999999999    0.0753000000000000 H
   0.2930037122834670    0.3480924900169729    0.5439750932129596 H
   0.6333000000000000    0.1447000000000001    0.9247000000000001 H
   0.8667000000000000    0.6447000000000001    0.5752999999999999 H
   0.1333000000000000    0.6447000000000001    0.9247000000000001 H
   0.6181000000000000    0.7907000000000000    0.3324000000000000 H
   0.3819000000000000    0.7907000000000000    0.1676000000000000 H
   0.1181000000000001    0.2907000000000000    0.3324000000000000 H
   0.8819000000000000    0.2907000000000000    0.1676000000000000 H
   0.3221294134564905    0.3886588167499316    0.6421942691267727 H
   0.6181000000000000    0.2093000000000000    0.8324000000000000 H
   0.8819000000000000    0.7093000000000000    0.6676000000000000 H
   0.1181000000000001    0.7093000000000000    0.8324000000000000 H
   0.3987000000000000    0.6394000000000000    0.3169000000000000 H
   0.6012999999999999    0.6394000000000000    0.1831000000000000 H
   0.8987000000000001    0.1394000000000000    0.3169000000000000 H
   0.1013000000000000    0.1394000000000000    0.1831000000000000 H
   0.5495203406825726    0.2977059729265556    0.6610908452401024 H
   0.3987000000000000    0.3606000000000000    0.8169000000000000 H
   0.1013000000000000    0.8606000000000000    0.6831000000000000 H
   0.8987000000000001    0.8606000000000000    0.8169000000000000 H
   0.4727000000000000    0.7949000000000001    0.3404000000000000 H
   0.5273000000000000    0.7949000000000001    0.1596000000000000 H
   0.9727000000000000    0.2949000000000002    0.3404000000000000 H
   0.0273000000000000    0.2949000000000002    0.1596000000000000 H
   0.4470117225978763    0.2379100530336139    0.6254731411901314 H
   0.4727000000000000    0.2050999999999999    0.8404000000000000 H
   0.0273000000000000    0.7050999999999999    0.6596000000000000 H
   0.9727000000000000    0.7050999999999999    0.8404000000000000 H
   0.4575000000000000    0.6965000000000000    0.4140000000000000 H
   0.5425000000000000    0.6965000000000000    0.0860000000000000 H
   0.9575000000000000    0.1964999999999999    0.4140000000000000 H
   0.0425000000000000    0.1964999999999999    0.0860000000000000 H
   0.4844891186346753    0.3077480384144867    0.5613422389687726 H
   0.4575000000000000    0.3035000000000000    0.9139999999999999 H
   0.0425000000000000    0.8035000000000000    0.5860000000000001 H
   0.9575000000000000    0.8035000000000000    0.9139999999999999 H
   0.4313000000000000    0.1459000000000000    0.4498000000000000 H
   0.5687000000000000    0.1459000000000000    0.0502000000000000 H
   0.9313000000000000    0.6459000000000000    0.4498000000000000 H
   0.0687000000000000    0.6459000000000000    0.0502000000000000 H
   0.6432275993616030    0.7580732338954537    0.5818782591823872 H
   0.4313000000000000    0.8541000000000000    0.9498000000000000 H
   0.0687000000000000    0.3541000000000000    0.5502000000000000 H
   0.9313000000000000    0.3541000000000000    0.9498000000000000 H
   0.3093000000000000    0.9601999999999999    0.3688000000000000 H
   0.6907000000000000    0.9601999999999999    0.1312000000000000 H
   0.8093000000000000    0.4602000000000000    0.3688000000000000 H
   0.1907000000000000    0.4602000000000000    0.1312000000000000 H
   0.5476760380442389   -0.0705672754907509    0.5704070833498396 H
   0.3093000000000000    0.0398000000000000    0.8688000000000000 H
   0.1907000000000000    0.5398000000000001    0.6312000000000000 H
   0.8093000000000000    0.5398000000000001    0.8688000000000000 H
   0.2443000000000000    0.9706000000000000    0.2206000000000000 H
   0.7557000000000000    0.9706000000000000    0.2794000000000000 H
   0.7443000000000000    0.4706000000000000    0.2206000000000000 H
   0.2557000000000000    0.4706000000000000    0.2794000000000000 H
   0.6013979370244503   -0.1453390339564605    0.7138132806478827 H
   0.2443000000000000    0.0294000000000000    0.7206000000000000 H
   0.2557000000000000    0.5294000000000000    0.7794000000000000 H
   0.7443000000000000    0.5294000000000000    0.7206000000000000 H
   0.5996800000000000    0.3005500000000000    0.4483900000000000 C
   0.4003200000000000    0.3005500000000000    0.0516100000000000 C
   0.0996800000000000    0.8005500000000000    0.4483900000000000 C
   0.9003200000000000    0.8005500000000000    0.0516100000000000 C
   0.4591935314971458    0.7945043524704710    0.5766344339778088 C
   0.5996800000000000    0.6994500000000000    0.9483900000000001 C
   0.9003200000000000    0.1994500000000000    0.5516099999999999 C
   0.0996800000000000    0.1994500000000000    0.9483900000000001 C
   0.3261400000000000    0.1670600000000000    0.2132700000000000 C
   0.6738600000000000    0.1670600000000000    0.2867300000000000 C
   0.8261400000000000    0.6670600000000000    0.2132700000000000 C
   0.1738600000000000    0.6670600000000000    0.2867300000000000 C
   0.7290703733289742    0.6333503315352286    0.8101973937018382 C
   0.3261400000000000    0.8329400000000000    0.7132700000000000 C
   0.1738600000000000    0.3329400000000000    0.7867300000000000 C
   0.8261400000000000    0.3329400000000000    0.7132700000000000 C
   0.3983800000000000    0.2779100000000000    0.2606800000000000 C
   0.6016200000000000    0.2779100000000000    0.2393200000000000 C
   0.8983800000000000    0.7779100000000000    0.2606800000000000 C
   0.1016200000000000    0.7779100000000000    0.2393200000000000 C
   0.6391185982882989    0.6104417295226656    0.7552589316941417 C
   0.3983800000000000    0.7220900000000000    0.7606800000000000 C
   0.1016200000000000    0.2220900000000000    0.7393200000000000 C
   0.8983800000000000    0.2220900000000000    0.7606800000000000 C
   0.6616700000000000    0.4406600000000000    0.4542000000000000 C
   0.3383300000000000    0.4406600000000000    0.0458000000000000 C
   0.1616700000000000    0.9406600000000001    0.4542000000000000 C
   0.8383300000000000    0.9406600000000001    0.0458000000000000 C
   0.3708886176821227    0.7358851976627122    0.5596391728485747 C
   0.6616700000000000    0.5593399999999999    0.9541999999999999 C
   0.8383300000000000    0.0593400000000000    0.5458000000000001 C
   0.1616700000000000    0.0593400000000000    0.9541999999999999 C
   0.6148800000000000    0.5830800000000000    0.4071100000000000 C
   0.3851200000000000    0.5830800000000000    0.0928900000000000 C
   0.1148799999999999    0.0830800000000000    0.4071100000000000 C
   0.8851200000000000    0.0830800000000000    0.0928900000000000 C
   0.3762191657778916    0.5652051094907696    0.5891066642177839 C
   0.6148800000000000    0.4169200000000000    0.9071100000000001 C
   0.8851200000000000    0.9169200000000000    0.5928899999999999 C
   0.1148799999999999    0.9169200000000000    0.9071100000000001 C
   0.6474500000000000    0.7616100000000000    0.3931500000000000 C
   0.3525500000000000    0.7616100000000000    0.1068500000000000 C
   0.1474500000000001    0.2616100000000001    0.3931500000000000 C
   0.8525500000000000    0.2616100000000001    0.1068500000000000 C
   0.3038994614526725    0.4435469652339811    0.5861708907483075 C
   0.6474500000000000    0.2383900000000000    0.8931500000000000 C
   0.8525500000000000    0.7383900000000000    0.6068500000000000 C
   0.1474500000000001    0.7383900000000000    0.8931500000000000 C
   0.4578900000000000    0.6798600000000000    0.3589000000000000 C
   0.5421100000000000    0.6798600000000000    0.1411000000000000 C
   0.9578900000000000    0.1798600000000001    0.3589000000000000 C
   0.0421100000000000    0.1798600000000001    0.1411000000000000 C
   0.4882629723524426    0.3225532916990578    0.6182121019242260 C
   0.4578900000000000    0.3201400000000000    0.8589000000000000 C
   0.0421100000000000    0.8201400000000000    0.6411000000000000 C
   0.9578900000000000    0.8201400000000000    0.8589000000000000 C
   0.4379900000000000    0.2682900000000000    0.3488100000000000 C
   0.5620100000000000    0.2682900000000000    0.1511900000000000 C
   0.9379900000000000    0.7682899999999999    0.3488100000000000 C
   0.0620100000000000    0.7682899999999999    0.1511900000000000 C
   0.6071923528902410    0.6588491305823055    0.6703949428344332 C
   0.4379900000000000    0.7317100000000001    0.8488100000000001 C
   0.0620100000000000    0.2317100000000000    0.6511899999999999 C
   0.9379900000000000    0.2317100000000000    0.8488100000000001 C
   0.4047000000000000    0.1508100000000000    0.3895100000000000 C
   0.5952999999999999    0.1508100000000000    0.1104900000000000 C
   0.9047000000000001    0.6508100000000000    0.3895100000000000 C
   0.0953000000000000    0.6508100000000000    0.1104900000000000 C
   0.6650506555229453    0.7269079490477192    0.6401377997778586 C
   0.4047000000000000    0.8491900000000000    0.8895100000000000 C
   0.0953000000000000    0.3491900000000000    0.6104900000000000 C
   0.9047000000000001    0.3491900000000000    0.8895100000000000 C
   0.3323200000000000    0.0408100000000000    0.3412600000000000 C
   0.6676800000000001    0.0408100000000000    0.1587400000000000 C
   0.8323199999999999    0.5408100000000000    0.3412600000000000 C
   0.1676800000000000    0.5408100000000000    0.1587400000000000 C
   0.7549136462907362    0.7489387815717224    0.6958190160999920 C
   0.3323200000000000    0.9591900000000000    0.8412600000000000 C
   0.1676800000000000    0.4591900000000000    0.6587400000000000 C
   0.8323199999999999    0.4591900000000000    0.8412600000000000 C
   0.2933000000000000    0.0475000000000000    0.2532800000000000 C
   0.7067000000000000    0.0475000000000000    0.2467200000000000 C
   0.7933000000000000    0.5475000000000000    0.2532800000000000 C
   0.2067000000000000    0.5475000000000000    0.2467200000000000 C
   0.7870529149831310    0.7036657796469732    0.7808743332765308 C
   0.2933000000000000    0.9525000000000000    0.7532799999999999 C
   0.2067000000000000    0.4525000000000000    0.7467200000000001 C
   0.7933000000000000    0.4525000000000000    0.7532799999999999 C
   0.5146800000000000    0.3750400000000000    0.3990400000000000 N
   0.4853200000000000    0.3750400000000000    0.1009600000000000 N
   0.0146800000000000    0.8750400000000000    0.3990400000000000 N
   0.9853200000000000    0.8750400000000000    0.1009600000000000 N
   0.5143998402151947    0.6439936122558009    0.6133205043394696 N
   0.5146800000000000    0.6249600000000000    0.8990400000000001 N
   0.9853200000000000    0.1249600000000000    0.6009599999999999 N
   0.0146800000000000    0.1249600000000000    0.8990400000000001 N
   0.5247200000000000    0.5438100000000000    0.3669900000000000 N
   0.4752800000000000    0.5438100000000000    0.1330100000000000 N
   0.0247199999999999    0.0438100000000001    0.3669900000000000 N
   0.9752800000000000    0.0438100000000001    0.1330100000000000 N
   0.4640033019020453    0.5079926824965501    0.6282167936156738 N
   0.5247200000000000    0.4561900000000000    0.8669899999999999 N
   0.9752800000000000    0.9561900000000000    0.6330100000000001 N
   0.0247199999999999    0.9561900000000000    0.8669899999999999 N
   0.6113900000000000    0.1443400000000000    0.4758100000000000 O
   0.3886100000000000    0.1443400000000000    0.0241900000000000 O
   0.1113900000000001    0.6443400000000000    0.4758100000000000 O
   0.8886100000000000    0.6443400000000000    0.0241900000000000 O
   0.4876505472339300    0.9416340154703916    0.5662875873598086 O
   0.6113900000000000    0.8556600000000000    0.9758100000000001 O
   0.8886100000000000    0.3556600000000000    0.5241899999999999 O
   0.1113900000000001    0.3556600000000000    0.9758100000000001 O
