H96 C88 N16 O8
1.0
  15.0565919659594680    0.0000000000000000   -7.5318928385244508
  -0.0000000000000005    7.4407137152702640    0.0000000000000005
   0.0000000000000000    0.0000000000000000   17.7198465569779025
H C N O
96 88 16 8
direct
   0.3099765416250642    0.1740196920098974    0.1503007293170541 H
   0.7084365561558510    0.1820393003648257    0.3504094326282465 H
   0.7980054350622624    0.6786343932736207    0.1535317463716174 H
   0.2010141360187740    0.6609860258855486    0.3451033780965312 H
   0.7001389935850750    0.8136255863544853    0.8476550731269760 H
   0.3023109664818746    0.8027473374423638    0.6547437626410628 H
   0.1987562876950332    0.3206887813780236    0.8578667170721181 H
   0.8053954824091070    0.3287397054144863    0.6573052138759067 H
   0.4155523625312471    0.3477552214035451    0.2388254267658659 H
   0.5640040567115746    0.3620530170979560    0.2641722706819290 H
   0.9243793048373395    0.8584748072136692    0.2279122547738709 H
   0.0849713311495032    0.8774855877780390    0.2663169238422961 H
   0.5818051526102214    0.6353129913869321    0.7635956331353934 H
   0.4113572952424373    0.6361097277221979    0.7295510467349988 H
   0.0825185783936500    0.1435145653852451    0.7659384065845182 H
   0.9128907375333750    0.1406807303849195    0.7297484602504749 H
   0.7207612097804245    0.4344901063403956    0.4903469504502292 H
   0.2761266979321920    0.4389903417228213    0.0119149383762627 H
   0.2202127525533739    0.9299897264601222    0.4771398670338050 H
   0.7708255275176652    0.9267946112829244    0.0114252710489949 H
   0.2677489283884959    0.5604371676376207    0.5096172564530671 H
   0.7376281031927391    0.5880292650107241    0.9867520916891213 H
   0.7728730378069499    0.0567719781211373    0.5085724882410428 H
   0.2231975170289197    0.0615814971673693    0.9829288802406070 H
   0.7175158879066560    0.7512023407631605    0.4230835307098667 H
   0.2867695218375407    0.7580019359699197    0.0896723625959357 H
   0.2090056294404519    0.2612348931687294    0.4129793988122478 H
   0.7766432473194049    0.2503687781077774    0.0689952634322730 H
   0.2798495194617919    0.2430516608732065    0.5856579219817615 H
   0.7108016749894779    0.2321016163289389    0.9192431953192248 H
   0.7849161908202498    0.7575912134634017    0.5836735122470147 H
   0.2104370141364612    0.7299076192762008    0.9072160099545519 H
   0.6281484639777035    0.8555901351004754    0.4193768121925111 H
   0.3728158788689900    0.8616898892008235    0.0769510035729405 H
   0.1250603909014797    0.3599770010777010    0.4200924410524770 H
   0.8776333084342980    0.3613414470144866    0.0786671669873144 H
   0.3640191577814772    0.1639437122017461    0.5806555029085770 H
   0.6301655221427547    0.1367216267769264    0.9211423874564908 H
   0.8574014552850808    0.6534481029371788    0.5676704734813025 H
   0.1318233761458117    0.6388422782674378    0.9305551396883662 H
   0.6146236371485320    0.7884299224437501    0.3377386459518331 H
   0.3890476879469553    0.7585817178010399    0.1636624449937424 H
   0.1174481764781701    0.2901574095017707    0.3358117310810429 H
   0.8886147277561056    0.2899876190068701    0.1701804994047609 H
   0.3818965147706937    0.1972024162385992    0.6704241896756163 H
   0.6165237637184395    0.2080505980264822    0.8322703306950738 H
   0.8762425509129834    0.7173318113456454    0.6643519865398683 H
   0.1147965893022505    0.7048919902300097    0.8366424119062512 H
   0.3937753608673583    0.6529714250893852    0.3242480178615012 H
   0.5941461038341391    0.6376373952143787    0.1721256126210714 H
   0.8954942899486552    0.1469493979031578    0.3174338008614477 H
   0.0973589062000713    0.1190130653042842    0.1837466497261438 H
   0.5990000235683943    0.3548177822777261    0.6829931774250311 H
   0.4050789778264687    0.3637730555671572    0.8198334608461645 H
   0.1102909488817324    0.8571967094253786    0.6926748903897206 H
   0.8990198131042801    0.8599614646137032    0.8281296508355231 H
   0.4819882138864329    0.7718151632799319    0.3467507634185755 H
   0.5189076243378828    0.7923197861698770    0.1594089085551755 H
   0.9698700249536952    0.2789099622131362    0.3356986773416291 H
   0.0277145519045533    0.3006082296987093    0.1617659061124258 H
   0.5301686683858877    0.2018813170026643    0.6533086248282672 H
   0.4745655579612891    0.2062595024466076    0.8432558475665167 H
   0.0263669617751059    0.7156551421994272    0.6589467164852663 H
   0.9630007610088795    0.7205535416088024    0.8358851245739218 H
   0.4638285331868792    0.7135142288651583    0.4075310903178483 H
   0.5434687513509687    0.6913667830292609    0.0874902018391034 H
   0.9538118047487171    0.1946864714032882    0.4180756474621351 H
   0.0345362586664630    0.1900182108713995    0.0772413859014316 H
   0.5414225265805918    0.3021728245392555    0.5905188669208717 H
   0.4548110675194265    0.2886804898534031    0.9079699344268763 H
   0.0443239709715708    0.8165692141732011    0.5891908562559484 H
   0.9593903623952075    0.8046245571028688    0.9178371379801137 H
   0.4353511900588569    0.1555915657287466    0.4594252160143459 H
   0.5689110614840863    0.1551524583987997    0.0518511657410937 H
   0.9382347522939848    0.6404209115062791    0.4547812353754048 H
   0.0689939839162275    0.6486866293020076    0.0493330886246945 H
   0.5719874821273676    0.8756874767255811    0.5425536356384539 H
   0.4328548318584464    0.8479819775992364    0.9492663707111301 H
   0.0683593270974177    0.3928024561496268    0.5479758012754388 H
   0.9424690950755836    0.3472676177107878    0.9571231236504640 H
   0.3164624982364547    0.9484731469585921    0.3677211051708253 H
   0.6918140918809820    0.9657350429661627    0.1314443312417078 H
   0.8113338235484723    0.4664792061561628    0.3677067067830234 H
   0.1829207326095727    0.4573807106520984    0.1283355511667732 H
   0.6900394911946142    0.0572604562789807    0.6293053662930654 H
   0.3140330423907260    0.0488421532303668    0.8638806202554993 H
   0.2008425434687399    0.5294938235415465    0.6381699262836079 H
   0.8091149751994114    0.5490953824190803    0.8764662239677307 H
   0.2448583463882531    0.9535492008183788    0.2252457898270515 H
   0.7621708644948055    0.9978089573180728    0.2714307893879023 H
   0.7363022079223355    0.4774543500019123    0.2080868420742815 H
   0.2500670011988372    0.4705095049076379    0.2797812742285488 H
   0.7484448122408657    0.0204857908582432    0.7727526021031778 H
   0.2346567146085148    0.0392079202912361    0.7142064199159640 H
   0.2598624320476076    0.5474081591414719    0.7724033445633077 H
   0.7388913553875824    0.5499457091588968    0.7227607315753191 H
   0.6013305946140227    0.2854943596438884    0.4527369226245000 C
   0.4099112471624525    0.2983419154949126    0.0460179110429034 C
   0.0864993659789551    0.8109663860735259    0.4390371584152959 C
   0.8979388393437184    0.7745468458530452    0.0558234823292938 C
   0.3966255636259580    0.7148572339597929    0.5575635226917419 C
   0.6022874754283946    0.7034570056057964    0.9544638591671256 C
   0.9018902223649576    0.1974647566039603    0.5575531285098158 C
   0.0972422498759359    0.2103208644180803    0.9574439097270329 C
   0.3173575198065159    0.1597054585202532    0.2083774990725473 C
   0.6788669610341548    0.1684845016226964    0.2961844330242207 C
   0.8293118232588345    0.6813582531549608    0.2066214958551189 C
   0.1824566733982854    0.6596044516155040    0.2951219916517201 C
   0.6712665417734672    0.8242760380992389    0.7970048444197527 C
   0.3188257989162537    0.8304503931919920    0.7160688516663233 C
   0.1714235141521169    0.3329530155791160    0.7829005350597665 C
   0.8205557280155763    0.3320508065089045    0.7253914116028140 C
   0.3829427680832944    0.2751307662563211    0.2499338020878145 C
   0.5944264162933299    0.2764829651643848    0.2395040736391591 C
   0.8987612583072349    0.7921677027611309    0.2632286347747548 C
   0.0969690653672797    0.7849405312617207    0.2319831685523881 C
   0.6046932226087944    0.7115932313580114    0.7487883794257755 C
   0.4050757042075460    0.7209679760695404    0.7681135660673540 C
   0.1008627237332011    0.1953888598101775    0.7395823798683101 C
   0.8939270820138377    0.2064596398389615    0.7599919098435330 C
   0.6723268102334284    0.4455160834828929    0.4553697141683939 C
   0.3344711198139805    0.4328967187411455    0.0415722809633384 C
   0.1486269505944304    0.9305363519757194    0.4543323107439573 C
   0.8422894230076904    0.9392379469709519    0.0475913034177237 C
   0.3398835824476374    0.5632322256998459    0.5396166282527982 C
   0.6781029746925814    0.5584247147811634    0.9675026644570768 C
   0.8338582550323230    0.0510788393473037    0.5389528504234961 C
   0.1705469658212748    0.0643960893096256    0.9570439180563451 C
   0.6119082128002953    0.5752108837399740    0.4198483903549325 C
   0.3818387072828053    0.5765479849858282    0.0885810735380280 C
   0.1074238279340034    0.0766936301287445    0.4009508034453295 C
   0.8790251535366980    0.0894096406028348    0.0885511589152077 C
   0.3855386667673079    0.4215154903250481    0.5940489508818402 C
   0.6146693240965313    0.4008418364077065    0.9171570474952812 C
   0.8963124604861513    0.9223319710142551    0.6011743280616493 C
   0.1203907138803667    0.9016251227070278    0.9082774014412909 C
   0.6542546227620125    0.7593021111400106    0.3969390172518880 C
   0.3542108621285629    0.7681861893343451    0.1141815177638647 C
   0.1540639510352117    0.2517067611053487    0.3961927307460297 C
   0.8602253212543239    0.2464503212729136    0.1025958070268383 C
   0.3443625022865656    0.2338270522152320    0.6076915816905593 C
   0.6498412693581209    0.2570474154259940    0.8998751249174720 C
   0.8591077976586537    0.7427633520783078    0.6043192619551365 C
   0.1516302906862425    0.7250455754187763    0.8950050927158955 C
   0.4620441009795708    0.6647546808004193    0.3661923759549588 C
   0.5429715098270829    0.6708734098648920    0.1457393276491833 C
   0.9556932501894044    0.1870894114236736    0.3705102591160122 C
   0.0380402466475252    0.1956655651724581    0.1301446754639500 C
   0.5433651950125743    0.3332649344780984    0.6343553751335766 C
   0.4613351293901313    0.3383627786421157    0.8580925610852290 C
   0.0458435905256718    0.8084919303480413    0.6361879417407181 C
   0.9549132361656151    0.8279351743823502    0.8524441162599995 C
   0.4339357608295772    0.2727008121242415    0.3541030303450295 C
   0.5570739630081707    0.2781576919800497    0.1555718814537023 C
   0.9359419779933152    0.7840595331275254    0.3533248494720887 C
   0.0637131848884000    0.7724782252354347    0.1569638947836640 C
   0.5550309439844994    0.7365078598109105    0.6601926272981257 C
   0.4317446790074470    0.7587695825168004    0.8444015540430997 C
   0.0592609243041490    0.2385930713238279    0.6520486311525084 C
   0.9482152728518062    0.2287308165900600    0.8444780886402566 C
   0.4063962777720729    0.1653790556664810    0.3918081713884383 C
   0.5820550842343644    0.1569703032291050    0.1127844715119304 C
   0.9105246944839593    0.6302037527500327    0.3982003503792700 C
   0.0977120615971320    0.6285191281583092    0.1030395384948143 C
   0.6009190742427823    0.8481306169763321    0.6209967700861951 C
   0.3928060892849863    0.8630865558010606    0.8879249182653838 C
   0.0956759475821945    0.3760352333820691    0.6160987439368847 C
   0.8954809608910479    0.3376361026206590    0.8860556341589714 C
   0.3388721824443131    0.0320860576124540    0.3371547344934240 C
   0.6734844772509676    0.0257574490399144    0.1630054148073104 C
   0.8280652119370022    0.5430649444557523    0.3486123269278688 C
   0.1580060461870247    0.5430644390718025    0.1484202740106183 C
   0.6765308309864425    0.9642435120063388    0.6555986861873746 C
   0.3301132302558070    0.9273144425966415    0.8346719212551206 C
   0.1667258815856920    0.4407564585455579    0.6547608838404092 C
   0.8311511767506906    0.4762276440384918    0.8364734615520679 C
   0.2952729671196338    0.0645241933732194    0.2445464564765963 C
   0.7134043423512542    0.0549765526156677    0.2606070522280668 C
   0.7938571517928140    0.5422313366502399    0.2578023011516559 C
   0.1951846506034035    0.5532749525432570    0.2448555278629576 C
   0.7022276448077439    0.9576351922702853    0.7411025384312867 C
   0.3027698591536804    0.9635648224969001    0.7609689820837657 C
   0.2107484485313869    0.4408201111129088    0.7499257350743461 C
   0.7957931109928016    0.4335056884339564    0.7613387750418230 C
   0.5059326266271738    0.3808142157652769    0.3944958944938575 N
   0.4858081059974663    0.3955762336909350    0.1099717777484267 N
   0.0068508845432301    0.8799955873697280    0.4026207390732693 N
   0.9940897647356899    0.8589495615322922    0.1115164066935547 N
   0.4798683094642316    0.6317471177198011    0.6074081699512437 N
   0.5179634621681406    0.6096401013924377    0.8846275062635441 N
   0.9821793330274275    0.1206906294762954    0.6044599192724257 N
   0.0147777269261230    0.1360642502105029    0.9059542715652350 N
   0.5407613196815149    0.5246399231177437    0.3660384523092693 N
   0.4746425507706486    0.5496499528383023    0.1358684508874546 N
   0.0262781886507593    0.0354282543039355    0.3690746540076533 N
   0.9689644062951525    0.0325582336282318    0.1306258550184135 N
   0.4761740905609385    0.4589600521612049    0.6327126485617557 N
   0.5335467431703645    0.4694567703907825    0.8775409996699026 N
   0.9863091744337924    0.9619403298727972    0.6353609329432562 N
   0.0308925865344181    0.9544243863286698    0.8693854531921960 N
   0.6008533293037001    0.1466302818442723    0.4668002651163084 O
   0.3858668773229944    0.1328169767225295    0.0265010748179234 O
   0.1197467883549857    0.6376966669045336    0.4779887737414875 O
   0.8875614882294441    0.6540007893952455    0.0252158178986796 O
   0.3894935366669386    0.8489808365549725    0.5251624780940102 O
   0.6076707075237745    0.8749599235052666    0.9749723672002419 O
   0.8982017089902958    0.3684858504407019    0.5293407988800144 O
   0.1127444192236344    0.3709682659696689    0.9773092189147845 O
