H  C  Ag H  C  N  Cl O 
 1.0000000000000000
    10.7044999999999995    0.0000000000000000    0.0000000000000000
     0.0000000000000000    8.6046999999999993    0.0000000000000000
    -0.0940859949949095    0.0000000000000000   15.6251167351013986
 H   C   Ag  H   C   N   Cl  O  
  32   8   4  24  12   8  12  48
Cartesian
  4.6371053347610180  2.5986193999999996  8.3004160617712941
  0.7150476370314772  6.9009694000000001 15.1054561701900347
  6.0672006088239723  6.0060805999999989  7.2605284021513592
  9.9892583065535145  1.7037305999999994  0.4554882937326186
  4.8180081052076043  2.5383864999999997  9.7196756232115860
  0.5341448665848906  6.8407364999999984 13.6861966087497411
  5.8862978383773870  6.0663135000000006  5.8412688407110664
 10.1701610770000990  1.7639635000000005  1.8747478551729111
  0.1123952124076423  2.3705948499999998  9.0151790168711869
  5.2397577593848528  6.6729448500000004 14.3906932150901401
 10.5919107311773502  6.2341051499999987  6.5457654470514646
  5.4645481842001375  1.9317551499999992  1.1702512488325130
  0.9462606454129132  2.6132473900000002 10.1617499106107623
  4.4058923263795817  6.9155973900000003 13.2441223213505648
  9.7580452981720782  5.9914526099999987  5.3991945533118901
  6.2984136172054095  1.6891026099999993  2.3168221425720872
  2.8591201175315510  3.5356712299999997 10.2049206063137401
  2.4930328542609441  7.8380212299999998 13.2009516256475870
  7.8451858260534397  5.0690287699999992  5.3560238576089114
  8.2112730893240471  0.7666787699999996  2.3599928382750659
  3.3825606781728568  4.3350478599999995  8.9626745105995571
  1.9695922936196384  0.0326978600000002 14.4431977213617699
  7.3217452654121331  4.2696521399999998  6.5982699533230944
  8.7347136499653537  8.5720021399999986  1.1177467425608834
  1.3680102995901615  3.9314874299999993  8.2529115624893148
  3.9841426722023332  8.2338374299999995 15.1529606694720123
  9.3362956439948288  4.6732125699999996  7.3080329014333376
  6.7201632713826580  0.3708625700000002  0.4079837944506395
  2.0616493247344692  2.6338986699999998  7.7065334637515033
  3.2905036470580260  6.9362486699999994  0.0739387682098235
  8.6426566188505216  5.9708013299999996  7.8544110001711491
  7.4138022965269652  1.6684513299999995 15.4870056957128295
  3.0689245140258170  3.4668336299999996  9.2598831178066252
  2.2832284577666782  7.7691836299999997 14.1459891141547036
  7.6353814295591746  5.1378663699999993  6.3010613461160281
  8.4210774858183122  0.8355163699999997  1.4149553497679497
  1.8282954551643165  3.1183432799999999  8.5126466944379899
  3.5238575166281785  7.4206932800000001 14.8932255375233389
  8.8760104884206736  5.4863567199999990  7.0482977694846634
  7.1804484269568132  1.1840067199999995  0.6677189263993142
  8.1669572627176041  3.9630666789999993 11.7469062261944259
  7.8895016526598809  8.2654166789999994 11.5945104696895527
  2.5373486808673862  4.6416333210000005  3.8140382377282260
  2.8148042909251090  0.3392833210000006  3.9664339942331006
  2.7424431827464741  8.2553491799999996 10.1165583916569837
  2.6097097890460206  3.9529991799999999 13.2893138403043434
  7.9618627608385166  0.3493508200000000  5.4443860722656687
  8.0945961545389693  4.6517008199999994  2.2716306236183086
  2.7702743781997956  1.0764479699999998 10.7570322072631832
  2.5818785935926996  5.3787979699999999 12.6488400246981438
  7.9340315653851956  7.5282520299999991  4.8039122566594701
  8.1224273499922912  3.2259020299999999  2.9121044392245081
  4.6371053347610180  0.4500258100000000  9.3457553217712928
  0.7150476370314773  4.7523758099999993 14.0601169101900343
  6.0672006088239714  8.1546741899999997  6.2151891421513596
  9.9892583065535145  3.8523241899999996  1.5008275537326181
  3.6737177998383692  0.7012830500000000  8.1374627400182540
  1.6784351719541264  5.0036330499999995 15.2684094919430731
  7.0305881437466216  7.9034169499999996  7.4234817239043984
  9.0258707716308635  3.6010669499999994  0.2925349719795796
  1.3069957557117273  0.5438170400000000  8.4376586790449561
  4.0451572160807681  4.8461670400000001 14.9682135529163709
  9.3973101878732646  8.0608829599999989  7.1232857848776963
  6.6591487275042232  3.7585329599999993  0.5927309110062812
  0.6754417050402129  0.3872114999999999  9.8602478756735188
  4.6767112667522825  4.6895614999999999 13.5456243562878083
 10.0288642385447773  8.2174884999999982  5.7006965882491327
  6.0275946768327078  3.9151384999999994  2.0153201076348446
  2.6889216530285496  0.5980266500000000  9.9168755493373713
  2.6632313187639456  4.9003766500000001 13.4889966826239558
  8.0153842905564421  8.0066733499999998  5.6440689145852811
  8.0410746248210447  3.7043233499999997  2.0719477812986966
  3.8674657374172576  0.9628659299999999  9.0519445348152541
  1.4846872343752380  5.2652159299999992 14.3539276971460730
  6.8368402061677331  7.6418340699999998  6.5089999291073983
  9.2196187092097528  3.3394840699999997  1.2070167667765794
  1.3337565205706898  0.8811212800000000  9.3468958202047627
  4.0183964512218058  5.1834712800000000 14.0589764117565643
  9.3705494230143014  7.7235787199999990  6.2140486437178897
  6.6859094923631863  3.4212287199999993  1.5019680521660883
  4.2260599865273543  2.4127578799999996  9.0669732143566630
  1.1260929852651409  6.7151078799999997 14.3388990176046640
  6.4782459570576361  6.1919421199999993  6.4939712495659894
  9.5782129583198508  1.8895921200000001  1.2220454463179879
  0.9430493536298376  2.3017572500000001  9.3289354272715865
  4.4091036181626579  6.6041072500000002 14.0769368046897405
  9.7612565899551544  6.3029427499999988  6.2320090366510659
  6.2952023254223342  2.0005927499999991  1.4840076592329119
  7.8756930979926576  1.9822647389999999  8.9992146773310910
  8.1807658173848292  6.2846147389999993 14.3422020185528876
  2.8286128455923332  6.6224352609999997  6.5617297865915614
  2.5235401262001620  2.3200852610000000  1.2187424453697651
  5.6633271455725120  6.0128783129999999 10.4080408215275568
 10.3931317698049757  1.7105283130000000 12.9333758743564200
  5.0409787980124792  2.5918216869999995  5.1529036423950947
  0.3111741737800157  6.8941716869999992  2.6275685895662320
  5.4485987683441959  1.7946822789999999 12.9433049175812691
 10.6078601470332909  6.0970322789999996 10.3981117783027077
  5.2557071752407953  6.8100177209999995  2.6176395463413829
  0.0964457965517002  2.5076677209999994  5.1628326856199438
  7.0487854638507166  2.1141747899999999  7.8443204254930654
  9.0076734515267702  6.4165247899999995 15.4970962703909123
  3.6555204797342742  6.4905252099999995  7.7166240384295870
  1.6966324920582205  2.1881752099999994  0.0638481935317398
  6.4322174415002209  5.7298697299999999 11.5928164283711208
  9.6242414738772659  1.4275197300000013 11.7486002675128578
  4.2720885020847703  2.8748302699999995  3.9681280355515312
  1.0800644697077251  7.1771802699999983  3.8123441964097955
  8.7090233157007493  3.1338317399999998  9.1571697358474697
  7.3474355996767375  7.4361817400000003 14.1842469600365089
  1.9952826278842419  5.4708682599999987  6.4037747280751827
  3.3568703439082532  1.1685182599999993  1.3766975038861440
  6.1656802235049541  7.1952501399999997  9.8006254512194495
  9.8907786918725318  2.8929001400000001 13.5407912446645291
  4.5386257200800371  1.4094498599999994  5.7603190127032038
  0.8135272517124585  5.7117998599999993  2.0201532192581229
  5.3864067508119673  0.4612119200000000 12.4256973942458782
 10.6700521645655186  4.7635619199999999 10.9157193016380987
  5.3178991927730230  8.1434880799999991  3.1352470696767738
  0.0342537790194715  3.8411380799999999  4.6452251622845528
  8.7154458992668999  0.8303535500000000  8.8993119625258217
  7.3410130161105869  5.1327035499999996 14.4421047333581551
  1.9888600443180906  7.7743464499999995  6.6616325013968298
  3.3632929274744048  3.4719964499999993  1.1188397305644966
  4.3009901281324492  6.2031282299999990 10.7759407856041225
  1.0511628436600460  1.9007782299999987 12.6299314463572045
  6.4033158154525420  2.4015717699999999  4.7850036783185299
  9.6531430999249448  6.7039217700000009  2.9310130175654479
  7.0348698661240565  1.8439872099999999 10.1469631616899676
  9.0215890492534303  6.1463372099999987 13.1944535341940110
  3.6694360774609343  6.7607127900000004  5.4139813022326857
  1.6827168943315605  2.4583627900000002  2.3664909297286414
  4.7837543261881326  2.6777826399999998 12.0386912409270330
  0.5683986456043624  6.9801326399999990 11.3671809910342940
  5.9205516173968578  5.9269173600000000  3.5222532229956189
 10.1359072979806282  1.6245673600000006  4.1937634728883584
  5.8081564049892158  4.9442606199999997  9.4746448661244322
 10.2483025103882710  0.6419106200000000 13.8667718297595464
  4.8961495385957754  3.6604393799999997  6.0862995977982211
  0.4560034331967198  7.9627893799999994  1.6941726341631060
  4.8372758559060580  1.8654989599999998 14.2227998832466476
  0.5148771158864375  6.1678489599999997  9.1830723487146795
  5.8670300876789341  6.7392010399999993  1.3381445806760053
 10.1894288276985527  2.4368510400000001  6.3778721152079720
  6.8336289143846578  2.1632215800000001 13.0685621857682204
  9.2228300009928290  6.4655715799999998 10.2728545101157582
  3.8706770292003325  6.4414784199999993  2.4923822781544316
  1.4814759425921622  2.1391284199999991  5.2880899538068951
