H96 C88 N16 O8
1.0
  14.9466859165839328    0.0000000000000000   -7.4769135584806277
  -0.0000000000000005    7.3864000000000001    0.0000000000000005
   0.0000000000000000    0.0000000000000000   17.5904999999999987
H C N O
96 88 16 8
direct
   0.3119650079640842    0.1748757830503584    0.1517458201789686 H
   0.7084755595779749    0.1817293195294281    0.3551317270101499 H
   0.7975291707424308    0.6729764590301593    0.1534713936248029 H
   0.2042583674059218    0.6595486052365940    0.3440273705212814 H
   0.7035769601559364    0.8080694714231220    0.8482044034530234 H
   0.3025819597325435    0.8081310986374213    0.6556145754058810 H
   0.2027280738312358    0.3249615264761805    0.8557777327631304 H
   0.8030121174437477    0.3317260391679688    0.6587211542715848 H
   0.4153698174599534    0.3549791945315379    0.2358673772274242 H
   0.5670435192500273    0.3643842530067541    0.2648127245891493 H
   0.9229125281218229    0.8610035230435379    0.2321347408481496 H
   0.0849409057633083    0.8813548320629795    0.2656498289640459 H
   0.5807085136187102    0.6413964353800070    0.7629992071007787 H
   0.4110468368831551    0.6368772585597655    0.7297360508591346 H
   0.0805581489877568    0.1425014846087984    0.7640880819615337 H
   0.9178046105277988    0.1397764816178286    0.7333323765110250 H
   0.7199067095469383    0.4346732978465842    0.4885427727018234 H
   0.2795309238041724    0.4351683229213867    0.0138224834083917 H
   0.2190472030455259    0.9335185232870314    0.4772453821876644 H
   0.7753696072902677    0.9282119492871205    0.0154753538042865 H
   0.2725483094028762    0.5654792922695103    0.5132997224191609 H
   0.7356434174269408    0.5823849222044485    0.9838257982910202 H
   0.7726047674083099    0.0577848507452716    0.5050877024948025 H
   0.2226916129825448    0.0628816695200073    0.9853524635021005 H
   0.7158948349142767    0.7518017678959992    0.4204497750166875 H
   0.2872992511593951    0.7529523111118639    0.0890906129170465 H
   0.2141248230328000    0.2565172420403360    0.4174660821645265 H
   0.7804553149880810    0.2560298074609334    0.0723837855776661 H
   0.2772404853865415    0.2540891463324480    0.5828570675546400 H
   0.7121316686867625    0.2366281585306122    0.9177482844928240 H
   0.7798185990271471    0.7601166923841681    0.5841435410873571 H
   0.2079193658036398    0.7329955518043615    0.9082722609697802 H
   0.6278702032077047    0.8482171549261006    0.4217367755349777 H
   0.3714166891577010    0.8613935942026630    0.0749704262749149 H
   0.1222392238091886    0.3602811121636515    0.4173418876916295 H
   0.8751415104645194    0.3572632660891935    0.0751457523952063 H
   0.3601365084583302    0.1539313331354042    0.5783268157620436 H
   0.6300101939529218    0.1359063322868873    0.9235515141619401 H
   0.8565436895449375    0.6558783563815515    0.5619684862317512 H
   0.1381095790209995    0.6372652223763350    0.9333676812597232 H
   0.6179158597643718    0.7864913036830994    0.3406303211781383 H
   0.3847219692027530    0.7592672129772653    0.1601876204721461 H
   0.1137571652955616    0.2955791089782829    0.3323484186230014 H
   0.8866635942736263    0.2846549239424916    0.1691384619319052 H
   0.3828327551316804    0.1948900341398563    0.6706205661048489 H
   0.6133074414697161    0.2059261659127922    0.8327625421308221 H
   0.8816872543920179    0.7196953108424912    0.6683322799790271 H
   0.1185215964724829    0.7109541576516630    0.8363930042703892 H
   0.3991970828672922    0.6502417615817185    0.3245650277419723 H
   0.5966008385793202    0.6370130359124324    0.1752198238772623 H
   0.8984781983081899    0.1413721232613974    0.3191671130822579 H
   0.1017274362330496    0.1268701513118632    0.1860925304459105 H
   0.6006761936810414    0.3610821624871266    0.6865372827809806 H
   0.4032452673965045    0.3647614670121774    0.8205838656850110 H
   0.1064861849762205    0.8617924362616020    0.6897628508647895 H
   0.8973396998810522    0.8584829209667286    0.8254558041726098 H
   0.4804821776170698    0.7776482740312907    0.3458036284307976 H
   0.5176808147548627    0.7908350961718538    0.1599628519303314 H
   0.9707862990268992    0.2701511403988320    0.3395309038526319 H
   0.0274600063227791    0.2965232390292360    0.1589940994449264 H
   0.5330022801346526    0.1981695616649231    0.6526578580657232 H
   0.4727034110730829    0.2057686235897955    0.8401034963524775 H
   0.0292821500377217    0.7155701254056823    0.6615547300892941 H
   0.9628579163127372    0.7163723461464209    0.8348203270354655 H
   0.4599944940400484    0.7153201204608629    0.4079283017735280 H
   0.5413973593251333    0.6988390399139156    0.0853769719311701 H
   0.9517815731703261    0.2002104958811320    0.4159763491407801 H
   0.0356165712026335    0.1890521284988461    0.0829355002287700 H
   0.5399015984255645    0.2894155183044774    0.5903048340713881 H
   0.4550008891800845    0.2867178162164305    0.9093107104395808 H
   0.0433599457339713    0.8131355606703652    0.5892242763748196 H
   0.9553429962651795    0.8081161826981358    0.9136785397290986 H
   0.4327332501000800    0.1555207648469769    0.4571515335648655 H
   0.5662696965585987    0.1531647607130001    0.0508085582193524 H
   0.9338600313121669    0.6439536085159653    0.4525163360918229 H
   0.0636474960337066    0.6460813046609790    0.0492122111191644 H
   0.5721750062652576    0.8708783812636487    0.5448277111601977 H
   0.4343011313302972    0.8512871983665665    0.9484474048816817 H
   0.0691930615326207    0.3809193334734560    0.5491145305064725 H
   0.9394604098753545    0.3465582491752567    0.9555887938648564 H
   0.3120892750573418    0.9537592325541387    0.3683992901007745 H
   0.6914149635867192    0.9640183057572088    0.1289457643364565 H
   0.8102468436240088    0.4739454246080333    0.3651952510675523 H
   0.1837793964915219    0.4565293307213528    0.1260341183008425 H
   0.6883838599113455    0.0482432213605977    0.6248470263691122 H
   0.3167198645002922    0.0389779006395057    0.8654735661414095 H
   0.1989907593193530    0.5360513129995298    0.6380169256033309 H
   0.8086878433152979    0.5522018181208841    0.8723772558810639 H
   0.2415704844479431    0.9599521369733960    0.2202782253869859 H
   0.7599514919276636    0.9932896387940083    0.2741689262185062 H
   0.7371256646506874    0.4715995564205510    0.2089496207913921 H
   0.2536576617749750    0.4743037794286944    0.2832297636770675 H
   0.7493697887095986    0.0215610087994963    0.7729367405604289 H
   0.2369730288498814    0.0350594737814439    0.7169142063878678 H
   0.2579831815108447    0.5460491293464532    0.7681879582740186 H
   0.7409270900659536    0.5459649572500079    0.7253258559498963 H
   0.6039033579310030    0.2905709191290948    0.4508553484776049 C
   0.4047316055446290    0.2997683615935930    0.0472369220874452 C
   0.0882282209614840    0.8066691908775345    0.4446947265755361 C
   0.8971758153840311    0.7851150986815770    0.0539540690318471 C
   0.4001501979005900    0.7095410870293430    0.5558641340246241 C
   0.6024617147059443    0.7050430133415867    0.9527451506235575 C
   0.9018220233324739    0.2060159204366662    0.5571977917062816 C
   0.0947302992120392    0.2076077719999263    0.9541522206382322 C
   0.3179523452422467    0.1588387892903787    0.2054271164541225 C
   0.6735984020445787    0.1701466811067112    0.2919616001928469 C
   0.8259671823255087    0.6734632009157341    0.2082670916601986 C
   0.1802847500572958    0.6545566430655557    0.2961860680037370 C
   0.6684501248509962    0.8331231009651615    0.7951904261768681 C
   0.3230659345663390    0.8278495837220772    0.7165418749253656 C
   0.1756648866346938    0.3388866404353530    0.7843199814712436 C
   0.8182222300891518    0.3371075133540418    0.7208673956713371 C
   0.3889592414980477    0.2781006483329837    0.2525185724287445 C
   0.5983814934450148    0.2753207357273796    0.2418711184430641 C
   0.8954786757322003    0.7833216173543107    0.2603026164960574 C
   0.1005287721944431    0.7752817267695139    0.2357338970166509 C
   0.6037887257800295    0.7085390316771754    0.7465293143676967 C
   0.4049399623113278    0.7251926179910254    0.7669093258985035 C
   0.0979154634635204    0.1898724043757908    0.7421366711158440 C
   0.8926795599121151    0.1997482774559703    0.7631760701155839 C
   0.6681286500675586    0.4419069624323380    0.4513200626278239 C
   0.3342533961328661    0.4275984638476744    0.0398030709518701 C
   0.1504537145166000    0.9210895681610847    0.4555387492743664 C
   0.8388875636689845    0.9349978213826214    0.0471134760551250 C
   0.3360510853003206    0.5597293248604891    0.5410338291599268 C
   0.6782648344281411    0.5543027332842440    0.9681382705992198 C
   0.8332329158710183    0.0470148478556885    0.5384495070477961 C
   0.1665419685136922    0.0688290915806700    0.9573941651739238 C
   0.6152705674465349    0.5798744455992652    0.4214972550258978 C
   0.3784178291486033    0.5747624424406006    0.0877621377270605 C
   0.1088244629066330    0.0773503858758606    0.4035525417414556 C
   0.8791305088412346    0.0867344689665524    0.0852525551076971 C
   0.3862912577685078    0.4216387933178380    0.5937423278194687 C
   0.6159677125994958    0.3909300654629397    0.9152071382077862 C
   0.8950858506694997    0.9267994500909424    0.6013720387843271 C
   0.1205478379054180    0.9039545396931078    0.9090179264362511 C
   0.6491659751484086    0.7546185997108078    0.3918692694262428 C
   0.3544967570598103    0.7717225144254992    0.1144228354666363 C
   0.1515283915274189    0.2584387591735394    0.3941241126826098 C
   0.8547645656100372    0.2490604211172005    0.1013316743480407 C
   0.3453271812938808    0.2333519878100053    0.6054895451547132 C
   0.6457643193406744    0.2580914713329603    0.8952622758726239 C
   0.8595978264809959    0.7375316048389943    0.6068342718958533 C
   0.1495842030285315    0.7202991594394416    0.8891632122414380 C
   0.4640102707327542    0.6604973545089199    0.3630536517731130 C
   0.5455264699310918    0.6715886812560222    0.1492193215167659 C
   0.9543529350765414    0.1821847317864937    0.3677168462726439 C
   0.0424567226198960    0.1957670555384840    0.1339773217857894 C
   0.5458332554592529    0.3301051920640171    0.6354412245257303 C
   0.4604581614564266    0.3262607004623798    0.8564777067901680 C
   0.0417016170405118    0.8051811860332918    0.6376403286539298 C
   0.9536927082938116    0.8360911690327272    0.8549376836438626 C
   0.4379526524679958    0.2663324264758598    0.3549468633948581 C
   0.5582521231269622    0.2673189264506341    0.1538399601503793 C
   0.9377184395298529    0.7850838580903071    0.3508992390860845 C
   0.0642494744867619    0.7778716714543626    0.1589774088525590 C
   0.5580436110107256    0.7270142366070740    0.6618116008625023 C
   0.4318615251276909    0.7480878168187286    0.8463247543663295 C
   0.0580384051918635    0.2406398940050440    0.6562246951469297 C
   0.9462567528398432    0.2365252145367542    0.8416419960824680 C
   0.4047871373720524    0.1546319692341233    0.3942078530443708 C
   0.5809284556034112    0.1619550943893354    0.1085219700442357 C
   0.9059705798630412    0.6360473957552576    0.3929900632498964 C
   0.1018174891447984    0.6353830516164511    0.1047587039657726 C
   0.6013951801533378    0.8415235196756676    0.6172196614328641 C
   0.3907464621249936    0.8686241707483097    0.8868438773870376 C
   0.0961226636037503    0.3765335174289553    0.6139282002154727 C
   0.9003199916560537    0.3320786929253076    0.8864432020281043 C
   0.3393032092864193    0.0350543806267602    0.3378376566079901 C
   0.6727644923876823    0.0252108176748330    0.1622632245051948 C
   0.8263331314883003    0.5428354416808248    0.3436092416759164 C
   0.1617106368188625    0.5399704308892398    0.1531911314828681 C
   0.6762287944314879    0.9660811124924251    0.6572270003363895 C
   0.3337274526262265    0.9356760148542347    0.8364213985837984 C
   0.1679478252671341    0.4393136046491648    0.6548283929345928 C
   0.8303749727137414    0.4819356003668210    0.8333747549102446 C
   0.2912631465891256    0.0706872500229435    0.2441694059285118 C
   0.7127705259748769    0.0663777616418437    0.2575619263639644 C
   0.7903946264632226    0.5434004891165700    0.2578424193923020 C
   0.1946258861125294    0.5574070878967337    0.2436815888730318 C
   0.7055231710920562    0.9542525992196123    0.7421447364154016 C
   0.3047093051854035    0.9643687345453098    0.7623440765360625 C
   0.2110861003658298    0.4443830896936630    0.7521371184916675 C
   0.7934822162568758    0.4377157590424725    0.7560747717604094 C
   0.5057527389183892    0.3850169409282451    0.3931809104241636 N
   0.4870119536533638    0.3909588611339083    0.1060621801888085 N
   0.0039048142194902    0.8776640723059735    0.3973579342690516 N
   0.9928853124711952    0.8609508247199674    0.1092438578570926 N
   0.4789318724969420    0.6307673270688220    0.6033296219350972 N
   0.5169185236332035    0.6104691304102263    0.8883718710275227 N
   0.9875687751207278    0.1201802898364406    0.6034067687235170 N
   0.0123429199542345    0.1302586163143375    0.9029149704658144 N
   0.5351105736450098    0.5249968191642218    0.3639853932772581 N
   0.4776948619390899    0.5472894959653193    0.1392839076496458 N
   0.0297748022595668    0.0269385136802022    0.3702112988334511 N
   0.9741369592839125    0.0365103016370345    0.1345266472184811 N
   0.4733818724624450    0.4556846819526169    0.6282233735170918 N
   0.5349390442407279    0.4738178393342274    0.8760794606899246 N
   0.9850212408173240    0.9605725400809998    0.6369400016426365 N
   0.0271723975498646    0.9494928546341463    0.8710460512998027 N
   0.6028931155154696    0.1425070482807539    0.4646091358156859 O
   0.3845766177018777    0.1338592068670790    0.0289180168394973 O
   0.1178474912979211    0.6361694409231471    0.4739434459437960 O
   0.8898467954865188    0.6435633640961386    0.0257584761278129 O
   0.3892712932938761    0.8482551434818133    0.5212674883291483 O
   0.6057621417613819    0.8657315238189144    0.9741111997525658 O
   0.8934979145987485    0.3674349824345328    0.5279673722959916 O
   0.1115038537529602    0.3670165243049956    0.9764983624329187 O
