H96 C88 N16 O8
1.0
  14.9466859165839328    0.0000000000000000   -7.4769135584806277
  -0.0000000000000005    7.3864000000000001    0.0000000000000005
   0.0000000000000000    0.0000000000000000   17.5904999999999987
H C N O
96 88 16 8
direct
   0.3002287211812660    0.1717131013236252    0.1561010894535814 H
   0.7024825927248420    0.1790230854315451    0.3470765129140869 H
   0.7976199754572536    0.6681209742212812    0.1508859015757315 H
   0.1997950652903070    0.6669189103551280    0.3470306696143617 H
   0.7003795513161518    0.8309451546683141    0.8445189972497630 H
   0.2991592600869711    0.8326009616072133    0.6545942917877774 H
   0.1988358646280158    0.3275697057987603    0.8482293014821140 H
   0.8003860317746677    0.3316614089703828    0.6552307989568096 H
   0.4223474765161057    0.3556911153470066    0.2355014574761213 H
   0.5783246603992988    0.3623223112906465    0.2689349118614730 H
   0.9231015408016779    0.8622343222410140    0.2357759475004408 H
   0.0766058070017382    0.8575269798273299    0.2669163070662172 H
   0.5813446034813725    0.6439770452603933    0.7660837348450120 H
   0.4233360252900137    0.6371916212608703    0.7331751627764274 H
   0.0793646067655346    0.1439403724708840    0.7645444250059913 H
   0.9210603924008642    0.1416404935414974    0.7305556161811053 H
   0.7249951161159962    0.4376067815314059    0.4833615399205310 H
   0.2724941340464258    0.4304282571260045    0.0138228492678887 H
   0.2261423162131125    0.9370771223487495    0.4886956071593508 H
   0.7729244562929397    0.9346510432265837    0.0111210789655536 H
   0.2762813583140281    0.5666885657592393    0.5173288406910599 H
   0.7234710002242728    0.5682116620106575    0.9828489214617873 H
   0.7731328627425690    0.0602254651256539    0.5133301207049497 H
   0.2222628890441229    0.0644163203068421    0.9863427957950286 H
   0.7099868155749840    0.7564949745129915    0.4102061724844948 H
   0.2862440202328452    0.7514240641380967    0.0846788963598066 H
   0.2153881717488187    0.2584772049692852    0.4154038814773250 H
   0.7893735878546450    0.2583283092200571    0.0852839070948585 H
   0.2901297651783026    0.2391783944598707    0.5879835001073267 H
   0.7112049536073131    0.2495467961200886    0.9135936061555133 H
   0.7859969743736764    0.7466644047251224    0.5882560107704393 H
   0.2122759623478657    0.7501272522137717    0.9124015390035566 H
   0.6306183039190185    0.8530740014524497    0.4221411284757960 H
   0.3647225766374495    0.8499520824506646    0.0739974693221586 H
   0.1308385893114475    0.3585868307854317    0.4223119811345494 H
   0.8699601024495466    0.3551964945079247    0.0773213706659376 H
   0.3667080927168911    0.1514329454377394    0.5755971392086879 H
   0.6345742806527228    0.1487961942727338    0.9272287530101198 H
   0.8655672650840455    0.6414008862738599    0.5725307382140801 H
   0.1352673559418268    0.6440499105519998    0.9278188841781000 H
   0.6149763667050072    0.7921639747428985    0.3318828609202211 H
   0.3825138589903625    0.7960408552778262    0.1695276116122242 H
   0.1170966477579199    0.2896198643525681    0.3293001473674285 H
   0.8812197986879572    0.2962589436726348    0.1688263726456178 H
   0.3826661653093012    0.2031103666032178    0.6688745836672542 H
   0.6201035778768624    0.2047289948133613    0.8320280864593169 H
   0.8809016835559754    0.7045880334948816    0.6653195681478082 H
   0.1150901590576393    0.7070354093105105    0.8319172660976080 H
   0.4004131696168987    0.6419531652368288    0.3198216069885026 H
   0.5998126816083257    0.6446950423136703    0.1837082508896788 H
   0.8955607720897216    0.1387437206509817    0.3146230704730680 H
   0.1018607371190286    0.1394886974606837    0.1861403220734675 H
   0.5985737482667962    0.3581195828689566    0.6806650764256912 H
   0.4016698333973537    0.3614149634481879    0.8168996219751897 H
   0.1025147564041668    0.8547430474792046    0.6826337300329265 H
   0.8986819439455860    0.8646178027761583    0.8191798808099894 H
   0.4725112259568492    0.7972303903891147    0.3429836290943687 H
   0.5302160610501389    0.7951803418366230    0.1622273655446053 H
   0.9711289465995868    0.2889675460157538    0.3394290094957107 H
   0.0279163275050410    0.3015496328957911    0.1597690238514507 H
   0.5284344037546811    0.2036627277735547    0.6574771625741516 H
   0.4727401238410855    0.2058885342433770    0.8375941685785676 H
   0.0255757161510720    0.7102658130968623    0.6577591185212857 H
   0.9721460140067875    0.7101711186906189    0.8419875826038817 H
   0.4588511831383409    0.6903093186746677    0.4146363047297458 H
   0.5393217374975855    0.6985180210779302    0.0849104299623383 H
   0.9582080001213664    0.1999246141292575    0.4119240369370349 H
   0.0399586148001185    0.1926294180887292    0.0858000121054794 H
   0.5447791492531890    0.3066970463898723    0.5885583700908548 H
   0.4558008847298023    0.3004252712993191    0.9153582029402255 H
   0.0418462998664782    0.7988901918255833    0.5877281416640182 H
   0.9564606325270333    0.8085672370830171    0.9152231737771821 H
   0.4313040390294332    0.1479094783097079    0.4470874067322814 H
   0.5697522378113169    0.1446700650663959    0.0479989833224772 H
   0.9316682167064420    0.6452588177935944    0.4471441989406953 H
   0.0677828692574899    0.6514945267511270    0.0484124915260901 H
   0.5671867434288101    0.8489726599399317    0.5482186172428071 H
   0.4299692458032941    0.8484526707495413    0.9503195053170548 H
   0.0705972704845295    0.3497838793225316    0.5495245975507196 H
   0.9314016655895636    0.3569829843769410    0.9472729031328901 H
   0.3114568104551154    0.9636156971956821    0.3713488552210517 H
   0.6932794898080995    0.9633351115218632    0.1335383722456499 H
   0.8119816286737248    0.4612861698014974    0.3683029157571505 H
   0.1907906004025092    0.4540364352797941    0.1300658527676554 H
   0.6929285636218413    0.0399185887250732    0.6342665112116991 H
   0.3114379672287160    0.0395770001042477    0.8718929109556445 H
   0.1917216722060567    0.5437832364369930    0.6337622423995654 H
   0.8124610268119800    0.5378100148013416    0.8697349382604045 H
   0.2413913302171993    0.9675395801714333    0.2199290648957631 H
   0.7525804363165554    0.9711247134484770    0.2790763778320049 H
   0.7448319470741832    0.4639377200345683    0.2210472614761939 H
   0.2539109760712384    0.4684473347665249    0.2808647850808402 H
   0.7565041391111716    0.0289879966209307    0.7824954700002771 H
   0.2425712997085702    0.0251240913041763    0.7182226227423498 H
   0.2576597841422880    0.5289191280228434    0.7779383004397961 H
   0.7438798311940555    0.5302727884749475    0.7176253893876681 H
   0.5995898839866010    0.2940030396688375    0.4476334078370792 C
   0.4010533128826920    0.2962364537886829    0.0498215915332705 C
   0.1022980022783324    0.8041673811518115    0.4504103818720575 C
   0.9011384014565180    0.7973790954559669    0.0495447668940951 C
   0.3975139024357778    0.7030926808270191    0.5501833348547259 C
   0.6006738157468718    0.6930437074696914    0.9484518857958747 C
   0.9026977501887653    0.2038158230328565    0.5518227000655870 C
   0.1025527022681129    0.1960361100581927    0.9498685539317618 C
   0.3232707014839343    0.1695622029583751    0.2130659903709864 C
   0.6758452920474584    0.1623014647486271    0.2886879609007409 C
   0.8266254551357340    0.6650047761074309    0.2107996760096532 C
   0.1738515030226043    0.6633514084044332    0.2891042750560603 C
   0.6741910768587326    0.8378881866083944    0.7849515714126439 C
   0.3274504819015246    0.8371133316267385    0.7118857393365549 C
   0.1765034626003815    0.3290472767613304    0.7872516246749979 C
   0.8291566309092856    0.3343242494264619    0.7134699026052839 C
   0.3986327048980102    0.2722649120522277    0.2623412747919572 C
   0.6005896277560839    0.2714702089325897    0.2388558246395987 C
   0.8988886266644091    0.7816696360695851    0.2585723176706577 C
   0.0996356003868805    0.7781379765711309    0.2361902107948118 C
   0.6013653145257267    0.7244060683316867    0.7418738539753028 C
   0.4003101511529736    0.7246715192552367    0.7594474576843355 C
   0.1036787879276072    0.2267363597425461    0.7412963028369199 C
   0.9008903864749801    0.2194294039712089    0.7602366528725065 C
   0.6617176622466494    0.4377911531313951    0.4516460300168975 C
   0.3415925484575534    0.4408553493004916    0.0465641092744696 C
   0.1613026246824490    0.9469992339230338    0.4530970935511145 C
   0.8398801797239761    0.9359421705858514    0.0449033051900236 C
   0.3403282350213411    0.5603221697775496    0.5444073693506499 C
   0.6644411723003805    0.5631164033937346    0.9555208139045335 C
   0.8358091653680662    0.0635662083123544    0.5441435142053628 C
   0.1614756129912718    0.0584713892657027    0.9569314769490274 C
   0.6119312360763536    0.5813190145096430    0.4047364340120790 C
   0.3875784725076265    0.5867354997453583    0.0951009776729952 C
   0.1131789678297940    0.0837022032067854    0.4088205113443407 C
   0.8844160081990804    0.0892590734117362    0.0935854899102268 C
   0.3872243178948282    0.4116751783150715    0.5936053929102444 C
   0.6142477631491218    0.4162390974475414    0.9096177986167269 C
   0.8833290992004207    0.9112250129927447    0.5923412529741547 C
   0.1158929810912702    0.9193419569217471    0.9100514151842712 C
   0.6499287785743298    0.7661523538248626    0.3942759719555944 C
   0.3537945032036410    0.7668578681348873    0.1059280129214515 C
   0.1490193651144547    0.2577671663303471    0.3957399409756092 C
   0.8523421797085174    0.2672030571752568    0.1083530516378675 C
   0.3518437619950829    0.2325659362973986    0.6078683489477700 C
   0.6468249797479404    0.2373184641744351    0.8901284325823605 C
   0.8536885478665831    0.7380135382455406    0.6046658775054309 C
   0.1494651539292842    0.7431072230703992    0.8929002027168460 C
   0.4607699726596048    0.6801598199087552    0.3615647144077743 C
   0.5390767949733349    0.6772132972282622    0.1402598915634502 C
   0.9605148484171777    0.1799939391007189    0.3617769257469018 C
   0.0395081431832134    0.1839064817839490    0.1394420599716464 C
   0.5401276709553026    0.3235883100156234    0.6384837946194613 C
   0.4612168215693965    0.3194346970936502    0.8602835604155450 C
   0.0392906771087676    0.8187618831314646    0.6413178923687188 C
   0.9590131499916781    0.8169330183326686    0.8570632521627382 C
   0.4394575643424628    0.2625103080498938    0.3502303166955366 C
   0.5607032625643225    0.2638847975878908    0.1524852257817565 C
   0.9408565209075618    0.7649942018734966    0.3495471455907800 C
   0.0622240536419849    0.7627928648388917    0.1529296759060424 C
   0.5634340935642961    0.7310038178588663    0.6543501786164110 C
   0.4374096379024163    0.7379454135226615    0.8475729654170401 C
   0.0620911603147663    0.2384000433714688    0.6507966064981492 C
   0.9407925476583636    0.2292534010874376    0.8511608287167050 C
   0.4060984928292876    0.1556516494211253    0.3916963304692099 C
   0.5965612840198925    0.1502680468313952    0.1136489217808601 C
   0.9038490348327829    0.6480212513430064    0.3866612528771243 C
   0.0943458967609502    0.6474703531628864    0.1077487170409970 C
   0.5933468234253375    0.8546268940217867    0.6099960560146584 C
   0.4036179827404763    0.8427943048867343    0.8891974586118693 C
   0.0963971273197925    0.3555361645366650    0.6112868315677003 C
   0.9054623752955743    0.3511450835907947    0.8871909690225482 C
   0.3291040942125052    0.0389781305990236    0.3400376105336910 C
   0.6660053781067904    0.0386969308995120    0.1603232902315393 C
   0.8290009523277936    0.5410784888912149    0.3395127218900794 C
   0.1650647060020802    0.5418110644444215    0.1593501366688616 C
   0.6680677861690654    0.9654259700913131    0.6599603763309272 C
   0.3300838174550755    0.9607444926837743    0.8423202401691628 C
   0.1672884054032096    0.4655082116891601    0.6595379086550374 C
   0.8333372870977479    0.4656343083225257    0.8415935589910973 C
   0.2934263714427247    0.0493267483256319    0.2560685935391493 C
   0.7094795162811031    0.0466735070603918    0.2463583553956318 C
   0.7954729598821002    0.5463651280454410    0.2563115424725059 C
   0.2048055827060734    0.5479663755556631    0.2435802404032145 C
   0.7098952132564855    0.9520004298220501    0.7472630525502799 C
   0.2911337960357237    0.9576002188820861    0.7526833047542800 C
   0.2050037722405757    0.4522108629296207    0.7484459343313307 C
   0.7933948189539870    0.4457338481079922    0.7532924227655088 C
   0.5177058715820007    0.3726450766983621    0.4010026598012605 N
   0.4852022295528708    0.3812212429734064    0.1020643058689472 N
   0.0179500840010287    0.8738357225823485    0.4001087743153268 N
   0.9880204200132959    0.8721307646677919    0.1032576831034154 N
   0.4877786866119726    0.6223990414125655    0.6036046103601036 N
   0.5179561795211681    0.6238497806836538    0.9007683171331998 N
   0.9831330490206245    0.1289656349304062    0.5986898153767579 N
   0.0157511233366393    0.1185724401445220    0.8997340135374193 N
   0.5263803209143559    0.5462068213581415    0.3654426712968155 N
   0.4746464207073000    0.5383562047613986    0.1343360394092777 N
   0.0220424261851596    0.0453502396653964    0.3674282502034543 N
   0.9781700077224988    0.0467425990754806    0.1335084199411464 N
   0.4763877530445770    0.4614366321072962    0.6319512011438790 N
   0.5261296605861109    0.4529586007763631    0.8653974648814081 N
   0.9726725422535105    0.9602482610986089    0.6324182322016065 N
   0.0249791896302072    0.9629253216959024    0.8669208360257322 N
   0.6110414081351857    0.1462736084007580    0.4729539695575664 O
   0.3890395802248466    0.1448241718885143    0.0271841627213675 O
   0.1133539423976886    0.6450825754571308    0.4789245790982728 O
   0.8874157756793833    0.6503520789431265    0.0245049357517003 O
   0.3877253724477112    0.8620298460329036    0.5232138383270210 O
   0.6143413654244760    0.8573524703914805    0.9781982649615131 O
   0.8918851889316822    0.3559535273955417    0.5261474328914216 O
   0.1115246056365912    0.3522218166977891    0.9734213878961336 O
