H96 C88 N16 O8
1.0
  15.4291666636613130    0.0000000000000000   -7.7182691914056560
  -0.0000000000000005    7.6248338448069068    0.0000000000000005
   0.0000000000000000    0.0000000000000000   18.1583233709352179
H C N O
96 88 16 8
direct
   0.3069750906494299    0.1668258242580963    0.1529752891318676 H
   0.7022680326884231    0.1761754994359487    0.3534791124387925 H
   0.8013937195181242    0.6642745474892634    0.1591017810187929 H
   0.1963426711247909    0.6525382060629045    0.3459605055650126 H
   0.7049942390775326    0.8179175243123408    0.8481592715210394 H
   0.3018880927874465    0.8226630383220594    0.6542143842125303 H
   0.2023350543588421    0.3020705919417435    0.8456619651032793 H
   0.8003132639241162    0.3223403652340702    0.6504420269561678 H
   0.4193022892483452    0.3602718316410689    0.2352397908572907 H
   0.5796130929739135    0.3761927318776070    0.2649772851837833 H
   0.9266588513915732    0.8702234056540700    0.2442835847144435 H
   0.0838124816237958    0.8746335013572007    0.2646885047609795 H
   0.5742530726981597    0.6416423007907640    0.7704769626731323 H
   0.4204229851728538    0.6518921447452301    0.7390641680461323 H
   0.0852729420461235    0.1262447837290236    0.7721820187975009 H
   0.9246297139361476    0.1510530472745396    0.7302602041275329 H
   0.7279562922284635    0.4239071045188373    0.4954369915138308 H
   0.2821731555459402    0.4137408564031516    0.0178485076447799 H
   0.2278926718745620    0.9586720620704970    0.4897948475139653 H
   0.7689955916477254    0.9411956310506340    0.0124987095031437 H
   0.2728957510254014    0.5627080423371315    0.5100957322651317 H
   0.7189761852861456    0.5650839571018302    0.9759487706677542 H
   0.7690638163336757    0.0830084279249403    0.5108000727994035 H
   0.2225047029291506    0.0739768196900395    0.9758755078601442 H
   0.7068386613618706    0.7575719705984044    0.4196919538573289 H
   0.2824902921954227    0.7642625273320881    0.0870467880427443 H
   0.2079442064989480    0.2529150590539810    0.4079426590898556 H
   0.7902392163819942    0.2525648826678046    0.0856261199640211 H
   0.2902978172112520    0.2294005501742202    0.5884879379572209 H
   0.7077449242747647    0.2294551282052141    0.9102149264177684 H
   0.7846430535666729    0.7378680453311822    0.5917362198685399 H
   0.2199008832343950    0.7273306026570685    0.9163774710719931 H
   0.6292306337347022    0.8526567622324848    0.4289621153648941 H
   0.3697353798714466    0.8576229389889386    0.0761000439892032 H
   0.1421879842142972    0.3471793323744962    0.4291640565092447 H
   0.8748043300347864    0.3494679636116153    0.0866150136256148 H
   0.3758812021298108    0.1462995594859609    0.5860047722182815 H
   0.6385555355027851    0.1583168003611134    0.9340628311987913 H
   0.8618305734457187    0.6562923947972603    0.5767999632640531 H
   0.1291308223842179    0.6510337630380592    0.9234066969054027 H
   0.6087716947921296    0.7853491332910297    0.3292662477417727 H
   0.3811707276489432    0.7752379155215765    0.1681656715813552 H
   0.1161796580045748    0.3158285860909140    0.3342620685568320 H
   0.8825922315393174    0.3049513612882866    0.1665272846322799 H
   0.3787620510215248    0.2078718301949423    0.6746525482166702 H
   0.6169854349138646    0.2265824336454227    0.8399350680645123 H
   0.8755798644578705    0.6997697856515452    0.6712935731499773 H
   0.1197779573062870    0.7259668928944956    0.8390797122928818 H
   0.3937917275019548    0.6394994655146886    0.3240549455993054 H
   0.6076179137330504    0.6476826268327478    0.1882138051813404 H
   0.9065810378256761    0.1212496759005402    0.3186207694805664 H
   0.0995332261712629    0.1368028164638256    0.1855405287044383 H
   0.6031212738247320    0.3576443584043184    0.6806121676383279 H
   0.3942805568478864    0.3650374858532964    0.8101670689247078 H
   0.0938573166029811    0.8650874042015273    0.6739972567373227 H
   0.8934432893632728    0.8639639056178301    0.8073272215354957 H
   0.4710808196515886    0.8092437509391321    0.3373638153371565 H
   0.5172277173722234    0.7863937277782196    0.1601937314187581 H
   0.9679942920314767    0.2845710345805922    0.3410863244850856 H
   0.0218154797632285    0.2758779752639042    0.1558994291688536 H
   0.5177704281863621    0.2011798801787447    0.6546372211157147 H
   0.4726977749899449    0.2094348035099244    0.8477280761111307 H
   0.0228918579900654    0.7036286071528769    0.6585503135430231 H
   0.9738797668466560    0.7031510814604771    0.8496599887970279 H
   0.4564164448658495    0.6984550870838534    0.4131479140171125 H
   0.5392284739922775    0.7103131383992985    0.0859171561114134 H
   0.9518184528455300    0.1933743807024846    0.4140113270643699 H
   0.0530838190923535    0.2075823582921462    0.0920034484029650 H
   0.5408177228744029    0.3116472002004224    0.5760244140603068 H
   0.4685087892975442    0.3148661705082837    0.9161742698680558 H
   0.0384108960921950    0.8157748005478840    0.5935234898851649 H
   0.9643941586552388    0.8143539014383848    0.9111134433757508 H
   0.4320420815387987    0.1434061278178076    0.4459999283413451 H
   0.5595977652976544    0.1498545057773321    0.0449597750438661 H
   0.9340103760340699    0.6490208313186948    0.4515369959919309 H
   0.0669917953574218    0.6645837852674410    0.0469366611715095 H
   0.5690550343353484    0.8410847532371515    0.5457827164727156 H
   0.4307828553666288    0.8573694996441353    0.9552189989065384 H
   0.0806500205875409    0.3602597518575226    0.5538209681894698 H
   0.9245567116985024    0.3476750379496767    0.9424531126753352 H
   0.3143730542022181    0.9489675565160691    0.3635124243423136 H
   0.6863904443544903    0.9528785582410239    0.1343104122365842 H
   0.8048842861762620    0.4654044977591270    0.3592043487348925 H
   0.1903209764561969    0.4385787336804040    0.1308389342944852 H
   0.6874502900259848    0.0353828236249880    0.6355512811249520 H
   0.3138978390259188    0.0282538782369161    0.8746993547777766 H
   0.1883445286052496    0.5424629602335929    0.6358837561932291 H
   0.8026700241805625    0.5349847148391620    0.8687263715250004 H
   0.2436232565400830    0.9891938825441144    0.2169202284423287 H
   0.7505592313723423    0.9753280342697576    0.2677669280406715 H
   0.7491892094918858    0.4775480355060007    0.2220351769821297 H
   0.2613814199178958    0.4654322450508715    0.2824196453188658 H
   0.7516834227946080    0.0389296292048466    0.7724463914201678 H
   0.2453156904165942    0.0285890505689943    0.7225064064334018 H
   0.2647100159377532    0.5300079868452242    0.7846815076204693 H
   0.7321359559894894    0.5348202698541710    0.7168346628346017 H
   0.6005383347030981    0.2842753770361289    0.4540939531395733 C
   0.4081871923857134    0.2937652869451640    0.0580362660792011 C
   0.1015520203137935    0.7988173506893854    0.4458868447259360 C
   0.9061690647441334    0.8111884716531621    0.0467441625038172 C
   0.4039621797846194    0.7033707040024975    0.5490562602048373 C
   0.5945270816227399    0.7027957493208217    0.9457367602846620 C
   0.8964483219582466    0.1946804391004103    0.5487607963330152 C
   0.1059338934734376    0.1946067555639774    0.9545865785450928 C
   0.3305148867635086    0.1663547943234612    0.2080791675368482 C
   0.6689691107577088    0.1843967084713121    0.2894286766651180 C
   0.8241667166578944    0.6825054520145263    0.2100168625769394 C
   0.1736548658284704    0.6676296145578655    0.2759918295582402 C
   0.6651718515181372    0.8281558971669213    0.7802177617166618 C
   0.3155478077755996    0.8222245496103286    0.7099198919217881 C
   0.1817305314462663    0.3166435902656068    0.7951569432536219 C
   0.8156072374541157    0.3265418257375314    0.7037547143787647 C
   0.3921441873918214    0.2679401351409864    0.2557275912349373 C
   0.6009287407680944    0.2785334459333589    0.2363947814341778 C
   0.8947368560933624    0.7942199793038930    0.2536054141733451 C
   0.1044884903576319    0.7796650170396896    0.2321197372258521 C
   0.6008719220789220    0.7307054726378299    0.7456019772102841 C
   0.3989592896896267    0.7220265964709244    0.7598995610872623 C
   0.1067808116501142    0.2350162353295744    0.7473036068694602 C
   0.9020595608257864    0.2194412568215619    0.7676054994610091 C
   0.6647739222294841    0.4246054395661911    0.4606906203070399 C
   0.3350820651415465    0.4472766143615836    0.0398881020630261 C
   0.1562863130971534    0.9353458260458267    0.4590355198522290 C
   0.8398582750424529    0.9590599400504702    0.0451413989436785 C
   0.3337802538892209    0.5547340764596637    0.5430529141350768 C
   0.6742309633853342    0.5616125889847597    0.9583515920953738 C
   0.8279134769591696    0.0627328381628748    0.5362414021732353 C
   0.1600043035034634    0.0564306479007465    0.9587314599734135 C
   0.6112094033516389    0.5842374190030358    0.4006766842381796 C
   0.3879361630637940    0.5881952201468441    0.0960813868461228 C
   0.1222551692657955    0.0659059091751920    0.4093043695516334 C
   0.8821583768550553    0.1042430570354340    0.0905365073892970 C
   0.3728258957287148    0.4230418330061408    0.5855146493666574 C
   0.6177119841610805    0.4121711191934286    0.9149984546046198 C
   0.8839738744946077    0.9201323488918841    0.5921095301000414 C
   0.1223055445241648    0.9090670335697368    0.9073799550778822 C
   0.6432224337231415    0.7745328395000717    0.3887668825789116 C
   0.3460630775112261    0.7798727231811359    0.1100638414720238 C
   0.1443274991495650    0.2430260320804545    0.3945784823588144 C
   0.8470352440930005    0.2528142775285916    0.0964979499774892 C
   0.3483021223985201    0.2487662562910899    0.5994541425320893 C
   0.6478013072757891    0.2407735420537098    0.8925518222084127 C
   0.8569107872695848    0.7182830216848174    0.6085648612771583 C
   0.1427513135537296    0.7373321564117349    0.8859411934302652 C
   0.4515373738806059    0.6861802372386051    0.3487413553428018 C
   0.5424906852109103    0.6850240494478946    0.1425304223327753 C
   0.9554107585074381    0.1880873900355764    0.3562946840074289 C
   0.0401884008858846    0.1905405075248135    0.1409621383131103 C
   0.5454123344563021    0.3068088190017148    0.6475719169460642 C
   0.4588005272685983    0.3408865822872869    0.8543622023471873 C
   0.0382515261192681    0.8229570579410229    0.6395935748165927 C
   0.9661161614249800    0.8247114032673172    0.8573811553208838 C
   0.4333444444771385    0.2691505904607812    0.3447915249730418 C
   0.5555155212737486    0.2513743084009726    0.1443108739112100 C
   0.9352165488726119    0.7624178017758428    0.3458224174305540 C
   0.0576522048191518    0.7635679370799321    0.1416260631612684 C
   0.5591704662432858    0.7371710795703988    0.6601902820465194 C
   0.4368469788778592    0.7258694425511576    0.8459246680212332 C
   0.0677765477497923    0.2470430226100505    0.6484812022341984 C
   0.9399244978709230    0.2157399138675981    0.8523484982788074 C
   0.4103446082108086    0.1647298630266424    0.3850974177414146 C
   0.5931116830216800    0.1437017689034547    0.1103281871173780 C
   0.9101509115344940    0.6499037146127448    0.3898058023458431 C
   0.1009897997535547    0.6314462571447707    0.1079066038181597 C
   0.5931675279474369    0.8674819747692946    0.6038957756313682 C
   0.3949586898018854    0.8619330916407127    0.8849110966365888 C
   0.0985887068153075    0.3397468464575291    0.6152283415045190 C
   0.9009344899387796    0.3496945074615502    0.8910879861499821 C
   0.3295868679033646    0.0409717016802021    0.3322836730393119 C
   0.6613627870692511    0.0443729427581317    0.1570484757430761 C
   0.8248129248175843    0.5548692077211644    0.3398734156475778 C
   0.1643392400029251    0.5445244976733649    0.1677364403699428 C
   0.6683865615083844    0.9599012538869771    0.6697724202848213 C
   0.3278362008130993    0.9648153291950210    0.8400709364286773 C
   0.1640046730930552    0.4624606396154516    0.6670633690694271 C
   0.8394898255770880    0.4543517800432339    0.8520353452664771 C
   0.2909508024151414    0.0447464788461521    0.2539642508261449 C
   0.7021975328551302    0.0355744898645422    0.2410680298248731 C
   0.7895869500188434    0.5485929871002013    0.2519835985618143 C
   0.1971926370829003    0.5410708757966024    0.2424070581814302 C
   0.7084935905304518    0.9650072991033708    0.7472173503343611 C
   0.2844517051046853    0.9679905570767193    0.7531884441242943 C
   0.2040186142716227    0.4488712977490129    0.7428786214616245 C
   0.7866253632968312    0.4465157321914733    0.7533411250804106 C
   0.5178768701424442    0.3966819539385906    0.4049500214846262 N
   0.4890449264742649    0.3657088267069719    0.1044705591065230 N
   0.0178516063087088    0.8569460918136749    0.4055992702493635 N
   0.9952833674934403    0.8819684488553643    0.1018973710973788 N
   0.4859115625500835    0.6192386459476907    0.5924667563795731 N
   0.5096644087422104    0.6261971156512151    0.8898211934048638 N
   0.9891110483800386    0.1425719221323084    0.5958429459758644 N
   0.0214521787567619    0.1048106679244254    0.9016449489779412 N
   0.5213475717173247    0.5388926103209698    0.3741384797612191 N
   0.4650366445232312    0.5501875577452826    0.1264283795453172 N
   0.0307860647140585    0.0535112339922853    0.3630376499691523 N
   0.9735447123014139    0.0275803989727379    0.1399250261381132 N
   0.4765835827154440    0.4371964903512914    0.6309617292650289 N
   0.5285191735641568    0.4778374369520061    0.8647975302038570 N
   0.9691640351534506    0.9485716311055898    0.6243582366629291 N
   0.0180017807442491    0.9476154786838242    0.8586614144577842 N
   0.6124017029857706    0.1369728716260176    0.4711967012613187 O
   0.3852056626162916    0.1253478956387627    0.0241422967840383 O
   0.1174110149500364    0.6550311013814827    0.4757496656959557 O
   0.8812694935110106    0.6444967696909587    0.0262538307431446 O
   0.3863586628051495    0.8322222140765311    0.5189074817825112 O
   0.6034594223573374    0.8462171680910382    0.9727344049051705 O
   0.8807110318296759    0.3504158796716254    0.5140508992887590 O
   0.1118251803747854    0.3521081849286877    0.9707942960770588 O
