H192 C176 N32 O16
1.0
  14.9466859165839328    0.0000000000000000   -7.4769135584806277
  -0.0000000000000009   14.7728000000000002    0.0000000000000009
   0.0000000000000000    0.0000000000000000   17.5904999999999987
H C N O
192 176 32 16
direct
   0.2990000000000000    0.0865500000000000    0.1530000000000000 H
   0.2990000000000000    0.5865500000000000    0.1530000000000000 H
   0.7010000000000002    0.0865500000000000    0.3470000000000000 H
   0.7010000000000002    0.5865500000000000    0.3470000000000001 H
   0.7990000000000000    0.3365500000000000    0.1530000000000001 H
   0.7990000000000000    0.8365500000000001    0.1530000000000001 H
   0.2010000000000000    0.3365500000000000    0.3470000000000000 H
   0.2010000000000000    0.8365500000000001    0.3470000000000000 H
   0.7010000000000002    0.4134500000000000    0.8470000000000001 H
   0.7010000000000002    0.9134500000000001    0.8470000000000001 H
   0.2990000000000000    0.4134500000000000    0.6530000000000001 H
   0.2990000000000000    0.9134500000000001    0.6530000000000000 H
   0.2010000000000000    0.1634500000000000    0.8470000000000001 H
   0.2010000000000000    0.6634500000000000    0.8470000000000000 H
   0.7990000000000000    0.1634500000000000    0.6530000000000000 H
   0.7990000000000000    0.6634500000000000    0.6530000000000001 H
   0.4206000000000000    0.1799500000000000    0.2331000000000000 H
   0.4206000000000000    0.6799500000000001    0.2331000000000000 H
   0.5794000000000001    0.1799500000000000    0.2669000000000001 H
   0.5794000000000001    0.6799500000000001    0.2669000000000001 H
   0.9206000000000001    0.4299500000000001    0.2331000000000001 H
   0.9206000000000002    0.9299500000000002    0.2331000000000001 H
   0.0794000000000000    0.4299500000000001    0.2669000000000000 H
   0.0794000000000000    0.9299500000000002    0.2669000000000001 H
   0.5794000000000001    0.3200500000000000    0.7669000000000001 H
   0.5794000000000001    0.8200500000000001    0.7669000000000000 H
   0.4206000000000000    0.3200500000000000    0.7331000000000001 H
   0.4206000000000000    0.8200500000000001    0.7331000000000001 H
   0.0794000000000000    0.0700500000000000    0.7669000000000000 H
   0.0794000000000000    0.5700500000000001    0.7669000000000000 H
   0.9206000000000001    0.0700500000000000    0.7331000000000001 H
   0.9206000000000001    0.5700500000000001    0.7331000000000001 H
   0.7249000000000001    0.2171500000000000    0.4858000000000001 H
   0.7249000000000001    0.7171500000000001    0.4858000000000001 H
   0.2751000000000001    0.2171500000000000    0.0142000000000000 H
   0.2751000000000001    0.7171500000000001    0.0142000000000000 H
   0.2248999999999999    0.4671500000000001    0.4858000000000001 H
   0.2248999999999999    0.9671500000000002    0.4858000000000001 H
   0.7751000000000001    0.4671500000000001    0.0142000000000000 H
   0.7751000000000002    0.9671500000000002    0.0142000000000001 H
   0.2751000000000001    0.2828500000000000    0.5142000000000000 H
   0.2751000000000001    0.7828500000000000    0.5142000000000001 H
   0.7249000000000001    0.2828500000000000    0.9858000000000000 H
   0.7249000000000001    0.7828500000000000    0.9858000000000000 H
   0.7751000000000001    0.0328500000000000    0.5142000000000001 H
   0.7751000000000001    0.5328500000000000    0.5142000000000001 H
   0.2248999999999999    0.0328500000000000    0.9858000000000001 H
   0.2248999999999999    0.5328500000000000    0.9858000000000000 H
   0.7124000000000000    0.3782000000000000    0.4132000000000001 H
   0.7124000000000000    0.8782000000000000    0.4132000000000001 H
   0.2876000000000000    0.3782000000000000    0.0868000000000000 H
   0.2876000000000000    0.8782000000000000    0.0868000000000000 H
   0.2124000000000002    0.1282000000000000    0.4132000000000001 H
   0.2124000000000002    0.6282000000000000    0.4132000000000001 H
   0.7876000000000000    0.1282000000000000    0.0868000000000000 H
   0.7876000000000000    0.6282000000000000    0.0868000000000001 H
   0.2876000000000000    0.1218000000000000    0.5868000000000001 H
   0.2876000000000000    0.6218000000000000    0.5868000000000000 H
   0.7124000000000000    0.1218000000000000    0.9132000000000000 H
   0.7124000000000000    0.6218000000000000    0.9132000000000000 H
   0.7876000000000000    0.3718000000000001    0.5868000000000000 H
   0.7876000000000000    0.8718000000000001    0.5868000000000001 H
   0.2124000000000002    0.3718000000000001    0.9132000000000000 H
   0.2124000000000002    0.8718000000000001    0.9132000000000000 H
   0.6333000000000001    0.4276500000000000    0.4247000000000001 H
   0.6333000000000002    0.9276500000000001    0.4247000000000001 H
   0.3667000000000000    0.4276500000000000    0.0753000000000000 H
   0.3667000000000000    0.9276500000000001    0.0753000000000000 H
   0.1333000000000000    0.1776500000000000    0.4247000000000000 H
   0.1333000000000000    0.6776500000000001    0.4247000000000001 H
   0.8667000000000001    0.1776500000000000    0.0753000000000001 H
   0.8667000000000001    0.6776500000000001    0.0753000000000001 H
   0.3667000000000000    0.0723500000000000    0.5752999999999999 H
   0.3667000000000000    0.5723500000000001    0.5752999999999999 H
   0.6333000000000001    0.0723500000000000    0.9247000000000002 H
   0.6333000000000001    0.5723500000000001    0.9247000000000002 H
   0.8667000000000001    0.3223500000000001    0.5753000000000000 H
   0.8667000000000001    0.8223500000000000    0.5753000000000000 H
   0.1333000000000000    0.3223500000000001    0.9247000000000002 H
   0.1333000000000000    0.8223500000000000    0.9247000000000002 H
   0.6181000000000001    0.3953500000000000    0.3324000000000001 H
   0.6181000000000001    0.8953500000000001    0.3324000000000001 H
   0.3819000000000001    0.3953500000000000    0.1676000000000001 H
   0.3819000000000001    0.8953500000000001    0.1676000000000001 H
   0.1181000000000001    0.1453500000000000    0.3324000000000000 H
   0.1181000000000001    0.6453500000000000    0.3324000000000000 H
   0.8819000000000001    0.1453500000000000    0.1676000000000001 H
   0.8819000000000001    0.6453500000000000    0.1676000000000001 H
   0.3819000000000001    0.1046500000000000    0.6676000000000001 H
   0.3819000000000001    0.6046500000000001    0.6676000000000000 H
   0.6181000000000001    0.1046500000000000    0.8324000000000001 H
   0.6181000000000001    0.6046500000000001    0.8324000000000001 H
   0.8819000000000001    0.3546500000000001    0.6676000000000001 H
   0.8819000000000001    0.8546500000000000    0.6676000000000001 H
   0.1181000000000001    0.3546500000000001    0.8324000000000000 H
   0.1181000000000001    0.8546500000000000    0.8324000000000000 H
   0.3987000000000001    0.3197000000000000    0.3169000000000001 H
   0.3987000000000001    0.8197000000000000    0.3169000000000001 H
   0.6013000000000001    0.3197000000000000    0.1831000000000000 H
   0.6013000000000001    0.8197000000000000    0.1831000000000001 H
   0.8987000000000002    0.0697000000000000    0.3169000000000001 H
   0.8987000000000002    0.5697000000000000    0.3169000000000001 H
   0.1013000000000000    0.0697000000000000    0.1831000000000000 H
   0.1013000000000000    0.5697000000000000    0.1831000000000000 H
   0.6013000000000001    0.1803000000000000    0.6831000000000002 H
   0.6013000000000001    0.6803000000000000    0.6831000000000002 H
   0.3987000000000001    0.1803000000000000    0.8169000000000000 H
   0.3987000000000001    0.6803000000000000    0.8169000000000000 H
   0.1013000000000000    0.4303000000000001    0.6831000000000000 H
   0.1013000000000000    0.9303000000000001    0.6831000000000000 H
   0.8987000000000002    0.4303000000000001    0.8169000000000001 H
   0.8987000000000003    0.9303000000000001    0.8169000000000001 H
   0.4727000000000001    0.3974500000000001    0.3404000000000000 H
   0.4727000000000001    0.8974500000000002    0.3404000000000000 H
   0.5273000000000000    0.3974500000000001    0.1596000000000001 H
   0.5273000000000000    0.8974500000000002    0.1596000000000000 H
   0.9727000000000000    0.1474500000000001    0.3404000000000000 H
   0.9727000000000000    0.6474500000000001    0.3404000000000001 H
   0.0273000000000000    0.1474500000000001    0.1596000000000000 H
   0.0273000000000000    0.6474500000000001    0.1596000000000000 H
   0.5273000000000000    0.1025500000000000    0.6596000000000000 H
   0.5273000000000000    0.6025500000000000    0.6596000000000000 H
   0.4727000000000001    0.1025500000000000    0.8404000000000001 H
   0.4727000000000001    0.6025500000000000    0.8404000000000000 H
   0.0273000000000000    0.3525500000000000    0.6596000000000001 H
   0.0273000000000000    0.8525500000000000    0.6596000000000000 H
   0.9727000000000000    0.3525500000000000    0.8404000000000001 H
   0.9727000000000000    0.8525500000000000    0.8404000000000001 H
   0.4575000000000000    0.3482500000000000    0.4140000000000000 H
   0.4575000000000000    0.8482500000000001    0.4140000000000000 H
   0.5425000000000000    0.3482500000000000    0.0860000000000001 H
   0.5425000000000000    0.8482500000000001    0.0860000000000001 H
   0.9575000000000001    0.0982500000000000    0.4140000000000000 H
   0.9575000000000001    0.5982499999999999    0.4140000000000000 H
   0.0425000000000000    0.0982500000000000    0.0860000000000000 H
   0.0425000000000000    0.5982499999999999    0.0860000000000000 H
   0.5425000000000000    0.1517500000000000    0.5860000000000002 H
   0.5425000000000000    0.6517500000000001    0.5860000000000002 H
   0.4575000000000000    0.1517500000000000    0.9139999999999999 H
   0.4575000000000000    0.6517500000000001    0.9139999999999999 H
   0.0425000000000000    0.4017500000000001    0.5860000000000001 H
   0.0425000000000000    0.9017500000000002    0.5860000000000001 H
   0.9575000000000001    0.4017500000000001    0.9140000000000000 H
   0.9575000000000001    0.9017500000000002    0.9140000000000000 H
   0.4313000000000001    0.0729500000000000    0.4498000000000000 H
   0.4313000000000001    0.5729500000000001    0.4498000000000000 H
   0.5687000000000001    0.0729500000000000    0.0502000000000001 H
   0.5687000000000001    0.5729500000000001    0.0502000000000001 H
   0.9313000000000001    0.3229500000000000    0.4498000000000000 H
   0.9313000000000001    0.8229500000000002    0.4498000000000001 H
   0.0687000000000000    0.3229500000000000    0.0502000000000000 H
   0.0687000000000000    0.8229500000000002    0.0502000000000000 H
   0.5687000000000001    0.4270500000000000    0.5502000000000000 H
   0.5687000000000002    0.9270500000000000    0.5502000000000001 H
   0.4313000000000001    0.4270500000000000    0.9498000000000001 H
   0.4313000000000001    0.9270500000000000    0.9498000000000000 H
   0.0687000000000000    0.1770500000000000    0.5502000000000001 H
   0.0687000000000000    0.6770500000000000    0.5502000000000000 H
   0.9313000000000001    0.1770500000000000    0.9498000000000001 H
   0.9313000000000001    0.6770500000000000    0.9498000000000001 H
   0.3093000000000001    0.4801000000000000    0.3688000000000001 H
   0.3093000000000000    0.9801000000000001    0.3688000000000001 H
   0.6907000000000001    0.4801000000000000    0.1312000000000001 H
   0.6907000000000002    0.9801000000000001    0.1312000000000001 H
   0.8093000000000000    0.2301000000000000    0.3688000000000001 H
   0.8093000000000000    0.7301000000000001    0.3688000000000001 H
   0.1907000000000000    0.2301000000000000    0.1312000000000000 H
   0.1907000000000000    0.7301000000000001    0.1312000000000000 H
   0.6907000000000001    0.0199000000000000    0.6312000000000001 H
   0.6907000000000001    0.5199000000000000    0.6312000000000001 H
   0.3093000000000001    0.0199000000000000    0.8688000000000001 H
   0.3093000000000000    0.5199000000000000    0.8688000000000000 H
   0.1907000000000000    0.2699000000000001    0.6312000000000001 H
   0.1907000000000000    0.7699000000000001    0.6312000000000000 H
   0.8093000000000000    0.2699000000000001    0.8688000000000001 H
   0.8093000000000000    0.7699000000000001    0.8688000000000001 H
   0.2443000000000000    0.4853000000000001    0.2206000000000000 H
   0.2443000000000000    0.9853000000000002    0.2206000000000000 H
   0.7557000000000000    0.4853000000000001    0.2794000000000000 H
   0.7557000000000001    0.9853000000000002    0.2794000000000000 H
   0.7443000000000000    0.2353000000000000    0.2206000000000000 H
   0.7443000000000000    0.7353000000000001    0.2206000000000000 H
   0.2557000000000000    0.2353000000000000    0.2794000000000000 H
   0.2557000000000001    0.7353000000000001    0.2794000000000000 H
   0.7557000000000000    0.0147000000000000    0.7794000000000000 H
   0.7557000000000000    0.5147000000000000    0.7794000000000000 H
   0.2443000000000000    0.0147000000000000    0.7206000000000000 H
   0.2443000000000000    0.5147000000000000    0.7206000000000000 H
   0.2557000000000000    0.2647000000000000    0.7794000000000000 H
   0.2557000000000000    0.7647000000000000    0.7794000000000000 H
   0.7443000000000000    0.2647000000000000    0.7206000000000000 H
   0.7443000000000000    0.7647000000000000    0.7206000000000001 H
   0.5996800000000001    0.1502750000000000    0.4483900000000001 C
   0.5996800000000001    0.6502750000000000    0.4483900000000001 C
   0.4003200000000000    0.1502750000000000    0.0516100000000000 C
   0.4003200000000000    0.6502750000000000    0.0516100000000000 C
   0.0996800000000000    0.4002750000000000    0.4483900000000001 C
   0.0996800000000000    0.9002750000000002    0.4483900000000001 C
   0.9003200000000001    0.4002750000000000    0.0516100000000001 C
   0.9003200000000001    0.9002750000000002    0.0516100000000002 C
   0.4003200000000000    0.3497250000000000    0.5516099999999999 C
   0.4003200000000000    0.8497250000000001    0.5516099999999999 C
   0.5996800000000001    0.3497250000000000    0.9483900000000002 C
   0.5996800000000001    0.8497250000000001    0.9483900000000002 C
   0.9003200000000001    0.0997250000000000    0.5516100000000000 C
   0.9003200000000001    0.5997250000000001    0.5516100000000002 C
   0.0996800000000000    0.0997250000000000    0.9483900000000001 C
   0.0996800000000000    0.5997250000000001    0.9483900000000001 C
   0.3261400000000000    0.0835300000000000    0.2132700000000000 C
   0.3261400000000000    0.5835300000000001    0.2132700000000000 C
   0.6738600000000001    0.0835300000000000    0.2867300000000001 C
   0.6738600000000001    0.5835300000000001    0.2867300000000001 C
   0.8261400000000001    0.3335300000000000    0.2132700000000000 C
   0.8261400000000001    0.8335300000000000    0.2132700000000000 C
   0.1738600000000000    0.3335300000000000    0.2867300000000000 C
   0.1738600000000000    0.8335300000000000    0.2867300000000000 C
   0.6738600000000001    0.4164700000000001    0.7867300000000000 C
   0.6738600000000001    0.9164700000000001    0.7867300000000000 C
   0.3261400000000000    0.4164700000000001    0.7132700000000001 C
   0.3261400000000000    0.9164700000000001    0.7132700000000000 C
   0.1738600000000000    0.1664700000000000    0.7867300000000000 C
   0.1738600000000000    0.6664700000000000    0.7867300000000000 C
   0.8261400000000001    0.1664700000000000    0.7132700000000001 C
   0.8261400000000001    0.6664700000000000    0.7132700000000001 C
   0.3983800000000001    0.1389550000000000    0.2606800000000001 C
   0.3983800000000001    0.6389550000000001    0.2606800000000000 C
   0.6016200000000000    0.1389550000000000    0.2393200000000000 C
   0.6016200000000000    0.6389550000000001    0.2393200000000000 C
   0.8983800000000001    0.3889550000000000    0.2606800000000001 C
   0.8983800000000001    0.8889550000000001    0.2606800000000001 C
   0.1016200000000000    0.3889550000000000    0.2393200000000000 C
   0.1016200000000000    0.8889550000000001    0.2393200000000000 C
   0.6016200000000000    0.3610450000000001    0.7393200000000000 C
   0.6016200000000000    0.8610450000000001    0.7393200000000000 C
   0.3983800000000001    0.3610450000000001    0.7606800000000001 C
   0.3983800000000001    0.8610450000000001    0.7606800000000000 C
   0.1016200000000000    0.1110450000000000    0.7393200000000001 C
   0.1016200000000000    0.6110450000000001    0.7393200000000000 C
   0.8983800000000001    0.1110450000000000    0.7606800000000001 C
   0.8983800000000001    0.6110450000000001    0.7606800000000001 C
   0.6616700000000000    0.2203300000000000    0.4542000000000000 C
   0.6616700000000000    0.7203300000000001    0.4542000000000000 C
   0.3383300000000000    0.2203300000000000    0.0458000000000000 C
   0.3383300000000000    0.7203300000000001    0.0458000000000000 C
   0.1616700000000000    0.4703300000000001    0.4542000000000000 C
   0.1616700000000000    0.9703300000000002    0.4542000000000000 C
   0.8383300000000001    0.4703300000000001    0.0458000000000001 C
   0.8383300000000002    0.9703300000000002    0.0458000000000001 C
   0.3383300000000000    0.2796700000000000    0.5458000000000002 C
   0.3383300000000000    0.7796700000000000    0.5458000000000002 C
   0.6616700000000000    0.2796700000000000    0.9541999999999999 C
   0.6616700000000000    0.7796700000000000    0.9541999999999999 C
   0.8383300000000001    0.0296700000000000    0.5458000000000002 C
   0.8383300000000001    0.5296700000000001    0.5458000000000002 C
   0.1616700000000000    0.0296700000000000    0.9541999999999999 C
   0.1616700000000000    0.5296700000000001    0.9541999999999999 C
   0.6148800000000000    0.2915400000000000    0.4071100000000001 C
   0.6148800000000000    0.7915400000000000    0.4071100000000001 C
   0.3851200000000001    0.2915400000000000    0.0928900000000000 C
   0.3851200000000001    0.7915400000000000    0.0928900000000000 C
   0.1148799999999999    0.0415400000000000    0.4071100000000000 C
   0.1148799999999999    0.5415400000000000    0.4071100000000001 C
   0.8851200000000000    0.0415400000000000    0.0928900000000000 C
   0.8851200000000000    0.5415400000000000    0.0928900000000001 C
   0.3851200000000001    0.2084600000000000    0.5928899999999999 C
   0.3851200000000001    0.7084600000000000    0.5928899999999999 C
   0.6148800000000000    0.2084600000000000    0.9071100000000001 C
   0.6148800000000000    0.7084600000000000    0.9071100000000001 C
   0.8851200000000000    0.4584600000000000    0.5928899999999999 C
   0.8851200000000001    0.9584600000000001    0.5928900000000000 C
   0.1148799999999999    0.4584600000000000    0.9071100000000002 C
   0.1148799999999999    0.9584600000000001    0.9071100000000001 C
   0.6474500000000000    0.3808050000000001    0.3931500000000001 C
   0.6474500000000000    0.8808050000000001    0.3931500000000001 C
   0.3525500000000001    0.3808050000000001    0.1068500000000001 C
   0.3525500000000001    0.8808050000000001    0.1068500000000000 C
   0.1474500000000001    0.1308050000000001    0.3931500000000001 C
   0.1474500000000001    0.6308050000000002    0.3931500000000001 C
   0.8525500000000000    0.1308050000000001    0.1068500000000001 C
   0.8525500000000000    0.6308050000000002    0.1068500000000001 C
   0.3525500000000001    0.1191950000000000    0.6068500000000001 C
   0.3525500000000001    0.6191949999999999    0.6068500000000000 C
   0.6474500000000000    0.1191950000000000    0.8931500000000001 C
   0.6474500000000000    0.6191949999999999    0.8931500000000001 C
   0.8525500000000000    0.3691950000000001    0.6068500000000001 C
   0.8525500000000000    0.8691950000000001    0.6068500000000001 C
   0.1474500000000001    0.3691950000000001    0.8931500000000000 C
   0.1474500000000001    0.8691950000000001    0.8931500000000000 C
   0.4578900000000001    0.3399300000000000    0.3589000000000001 C
   0.4578900000000001    0.8399300000000002    0.3589000000000001 C
   0.5421100000000000    0.3399300000000000    0.1411000000000001 C
   0.5421100000000000    0.8399300000000002    0.1411000000000001 C
   0.9578900000000000    0.0899300000000001    0.3589000000000001 C
   0.9578900000000000    0.5899300000000002    0.3589000000000001 C
   0.0421100000000000    0.0899300000000001    0.1411000000000000 C
   0.0421100000000000    0.5899300000000002    0.1411000000000000 C
   0.5421100000000000    0.1600700000000000    0.6411000000000001 C
   0.5421100000000000    0.6600700000000000    0.6411000000000001 C
   0.4578900000000001    0.1600700000000000    0.8589000000000001 C
   0.4578900000000001    0.6600700000000000    0.8589000000000000 C
   0.0421100000000000    0.4100700000000000    0.6411000000000000 C
   0.0421100000000000    0.9100700000000000    0.6411000000000000 C
   0.9578900000000000    0.4100700000000000    0.8589000000000001 C
   0.9578900000000000    0.9100700000000000    0.8589000000000001 C
   0.4379900000000000    0.1341450000000000    0.3488100000000001 C
   0.4379900000000000    0.6341450000000001    0.3488100000000000 C
   0.5620100000000000    0.1341450000000000    0.1511900000000000 C
   0.5620100000000000    0.6341450000000001    0.1511900000000000 C
   0.9379900000000000    0.3841450000000000    0.3488100000000001 C
   0.9379900000000000    0.8841450000000001    0.3488100000000001 C
   0.0620100000000000    0.3841450000000000    0.1511900000000000 C
   0.0620100000000000    0.8841450000000001    0.1511900000000000 C
   0.5620100000000000    0.3658550000000001    0.6511899999999999 C
   0.5620100000000000    0.8658550000000000    0.6511900000000000 C
   0.4379900000000000    0.3658550000000001    0.8488100000000002 C
   0.4379900000000000    0.8658550000000000    0.8488100000000002 C
   0.0620100000000000    0.1158550000000000    0.6511899999999999 C
   0.0620100000000000    0.6158550000000002    0.6511899999999999 C
   0.9379900000000000    0.1158550000000000    0.8488100000000002 C
   0.9379900000000000    0.6158550000000002    0.8488100000000002 C
   0.4047000000000001    0.0754050000000000    0.3895100000000001 C
   0.4047000000000001    0.5754050000000001    0.3895100000000000 C
   0.5952999999999999    0.0754050000000000    0.1104900000000000 C
   0.5952999999999999    0.5754050000000001    0.1104900000000001 C
   0.9047000000000001    0.3254050000000001    0.3895100000000000 C
   0.9047000000000001    0.8254050000000001    0.3895100000000001 C
   0.0953000000000000    0.3254050000000001    0.1104900000000000 C
   0.0953000000000000    0.8254050000000001    0.1104900000000000 C
   0.5952999999999999    0.4245950000000000    0.6104900000000000 C
   0.5953000000000001    0.9245950000000001    0.6104900000000001 C
   0.4047000000000001    0.4245950000000000    0.8895100000000001 C
   0.4047000000000001    0.9245950000000001    0.8895100000000001 C
   0.0953000000000000    0.1745950000000000    0.6104900000000000 C
   0.0953000000000000    0.6745950000000001    0.6104900000000000 C
   0.9047000000000001    0.1745950000000000    0.8895100000000000 C
   0.9047000000000001    0.6745950000000001    0.8895100000000000 C
   0.3323200000000000    0.0204050000000000    0.3412600000000000 C
   0.3323200000000000    0.5204050000000000    0.3412600000000000 C
   0.6676800000000002    0.0204050000000000    0.1587400000000000 C
   0.6676800000000002    0.5204050000000000    0.1587400000000001 C
   0.8323200000000001    0.2704050000000001    0.3412600000000001 C
   0.8323200000000001    0.7704050000000001    0.3412600000000001 C
   0.1676800000000000    0.2704050000000001    0.1587400000000000 C
   0.1676800000000000    0.7704050000000001    0.1587400000000000 C
   0.6676800000000002    0.4795950000000000    0.6587400000000001 C
   0.6676800000000003    0.9795950000000001    0.6587400000000001 C
   0.3323200000000001    0.4795950000000000    0.8412600000000001 C
   0.3323200000000000    0.9795950000000001    0.8412600000000000 C
   0.1676800000000001    0.2295950000000000    0.6587400000000001 C
   0.1676800000000001    0.7295950000000001    0.6587400000000000 C
   0.8323200000000001    0.2295950000000000    0.8412600000000001 C
   0.8323200000000001    0.7295950000000001    0.8412600000000001 C
   0.2933000000000001    0.0237500000000000    0.2532800000000001 C
   0.2933000000000001    0.5237500000000000    0.2532800000000000 C
   0.7067000000000001    0.0237500000000000    0.2467200000000001 C
   0.7067000000000001    0.5237500000000000    0.2467200000000001 C
   0.7933000000000001    0.2737500000000000    0.2532800000000001 C
   0.7933000000000001    0.7737500000000002    0.2532800000000001 C
   0.2067000000000000    0.2737500000000000    0.2467200000000000 C
   0.2067000000000000    0.7737500000000002    0.2467200000000000 C
   0.7067000000000001    0.4762500000000001    0.7467200000000002 C
   0.7067000000000002    0.9762500000000001    0.7467200000000002 C
   0.2933000000000001    0.4762500000000001    0.7532799999999999 C
   0.2933000000000001    0.9762500000000001    0.7532799999999999 C
   0.2067000000000000    0.2262500000000000    0.7467200000000001 C
   0.2067000000000000    0.7262500000000002    0.7467200000000001 C
   0.7933000000000001    0.2262500000000000    0.7532800000000001 C
   0.7933000000000001    0.7262500000000002    0.7532800000000001 C
   0.5146800000000000    0.1875200000000000    0.3990400000000001 N
   0.5146800000000000    0.6875200000000000    0.3990400000000000 N
   0.4853200000000000    0.1875200000000000    0.1009600000000000 N
   0.4853200000000000    0.6875200000000000    0.1009600000000000 N
   0.0146800000000000    0.4375200000000001    0.3990400000000000 N
   0.0146800000000000    0.9375200000000001    0.3990400000000001 N
   0.9853200000000001    0.4375200000000001    0.1009600000000000 N
   0.9853200000000002    0.9375200000000001    0.1009600000000001 N
   0.4853200000000000    0.3124800000000000    0.6009600000000000 N
   0.4853200000000000    0.8124800000000001    0.6009600000000000 N
   0.5146800000000000    0.3124800000000000    0.8990400000000002 N
   0.5146800000000000    0.8124800000000001    0.8990400000000002 N
   0.9853200000000001    0.0624800000000000    0.6009599999999999 N
   0.9853200000000001    0.5624800000000000    0.6009600000000000 N
   0.0146800000000000    0.0624800000000000    0.8990400000000001 N
   0.0146800000000000    0.5624800000000000    0.8990400000000001 N
   0.5247200000000000    0.2719050000000000    0.3669900000000000 N
   0.5247200000000000    0.7719050000000002    0.3669900000000000 N
   0.4752800000000001    0.2719050000000000    0.1330100000000001 N
   0.4752800000000001    0.7719050000000002    0.1330100000000000 N
   0.0247199999999999    0.0219050000000001    0.3669900000000000 N
   0.0247199999999999    0.5219050000000001    0.3669900000000000 N
   0.9752800000000001    0.0219050000000001    0.1330100000000001 N
   0.9752800000000001    0.5219050000000001    0.1330100000000002 N
   0.4752800000000001    0.2280950000000000    0.6330100000000001 N
   0.4752800000000001    0.7280950000000000    0.6330100000000001 N
   0.5247200000000000    0.2280950000000000    0.8669900000000000 N
   0.5247200000000000    0.7280950000000000    0.8669899999999999 N
   0.9752800000000001    0.4780950000000000    0.6330100000000002 N
   0.9752800000000003    0.9780950000000002    0.6330100000000002 N
   0.0247199999999999    0.4780950000000000    0.8669899999999999 N
   0.0247199999999999    0.9780950000000002    0.8669899999999999 N
   0.6113900000000001    0.0721700000000000    0.4758100000000001 O
   0.6113900000000001    0.5721700000000001    0.4758100000000001 O
   0.3886100000000001    0.0721700000000000    0.0241900000000000 O
   0.3886100000000001    0.5721700000000001    0.0241900000000000 O
   0.1113900000000001    0.3221700000000001    0.4758100000000000 O
   0.1113900000000001    0.8221700000000001    0.4758100000000001 O
   0.8886100000000001    0.3221700000000001    0.0241900000000000 O
   0.8886100000000001    0.8221700000000001    0.0241900000000001 O
   0.3886100000000001    0.4278300000000000    0.5241900000000000 O
   0.3886100000000001    0.9278300000000000    0.5241900000000000 O
   0.6113900000000001    0.4278300000000000    0.9758100000000002 O
   0.6113900000000002    0.9278300000000000    0.9758100000000002 O
   0.8886100000000001    0.1778300000000000    0.5241900000000000 O
   0.8886100000000001    0.6778300000000000    0.5241900000000000 O
   0.1113900000000001    0.1778300000000000    0.9758100000000001 O
   0.1113900000000001    0.6778300000000000    0.9758100000000001 O
