H96 C88 N16 O8
1.0
  14.9466859165839328    0.0000000000000000   -7.4769135584806277
  -0.0000000000000005    7.3864000000000001    0.0000000000000005
   0.0000000000000000    0.0000000000000000   17.5904999999999987
H C N O
96 88 16 8
direct
   0.3036012710370526    0.1756264663959306    0.1540281113275550 H
   0.7025055059306826    0.1776760100139553    0.3487716769853667 H
   0.7984941813210920    0.6645843930731715    0.1561440209527018 H
   0.2016390481358017    0.6719840572098477    0.3471435702475865 H
   0.7027116508595631    0.8219920761977065    0.8522580143110472 H
   0.2997405824517920    0.8266787230180357    0.6514230981744024 H
   0.2004162069878903    0.3235845469040111    0.8483885379647977 H
   0.8024037607865377    0.3334343003286482    0.6529485297184443 H
   0.4223035558598748    0.3561715142240831    0.2356931410384991 H
   0.5743602419304404    0.3595112230251141    0.2660951634150051 H
   0.9145241756323402    0.8612664901831084    0.2300421311060664 H
   0.0841687991432077    0.8679004322129941    0.2668931967393495 H
   0.5804234484871454    0.6403313159420291    0.7644521719626449 H
   0.4158115420487997    0.6391800329560393    0.7350014360313277 H
   0.0790292785053261    0.1418298283459308    0.7685778162314555 H
   0.9164809957580424    0.1440168304115915    0.7354770753941018 H
   0.7241581469625684    0.4402633462269419    0.4885657062940247 H
   0.2805025616242606    0.4314856909512218    0.0137537923739013 H
   0.2244686631726644    0.9364274201143451    0.4803914152581997 H
   0.7793512053086064    0.9370607677880347    0.0165363960201648 H
   0.2739407285492612    0.5703480691478118    0.5128130126287089 H
   0.7255952134506767    0.5785338933441562    0.9852609736823779 H
   0.7787950871406540    0.0563633538100100    0.5176360503491179 H
   0.2225337982881561    0.0733880481445947    0.9858479984118961 H
   0.7088772819766614    0.7521708708668972    0.4101325252410415 H
   0.2869139217615219    0.7576955565096687    0.0826603033487535 H
   0.2141990417055574    0.2645880761890333    0.4134946589792631 H
   0.7867295921562403    0.2581800258198027    0.0821214548055617 H
   0.2818945104949018    0.2456334165518755    0.5855996645725006 H
   0.7156465952247375    0.2551225462010387    0.9156049108467049 H
   0.7843125481403501    0.7547601636916725    0.5852314156047828 H
   0.2122926763108829    0.7439929519714905    0.9130856234857083 H
   0.6330369902296030    0.8587279157247089    0.4218812412555557 H
   0.3683674848446165    0.8581098481773579    0.0741345629907551 H
   0.1317533204047467    0.3509181203746813    0.4269643728317333 H
   0.8726009697309235    0.3506933438348611    0.0764984844461891 H
   0.3672020999968965    0.1413779826963470    0.5753209081303123 H
   0.6389324955182157    0.1407333721229258    0.9268986646483016 H
   0.8617306476416307    0.6515253290664045    0.5725732107221557 H
   0.1386644819572091    0.6399856894984080    0.9281400289009591 H
   0.6216336892419760    0.7878949072707117    0.3378150159280410 H
   0.3815457901782676    0.7795204657886973    0.1682668917519489 H
   0.1144370763442159    0.2903895489181180    0.3283020916628640 H
   0.8827075447422839    0.2971348382916013    0.1690739913266909 H
   0.3855182664924746    0.2087798052807687    0.6704824837508961 H
   0.6186959363379926    0.2084399879056443    0.8343812844249687 H
   0.8805592332338432    0.7128803346715270    0.6682203628574748 H
   0.1180609209222711    0.7137955938740285    0.8350533815544288 H
   0.3984764085995862    0.6416765119133389    0.3181920304190102 H
   0.5992372340484076    0.6346372213327170    0.1803150201576814 H
   0.8990187121113415    0.1339225185235629    0.3178944524730778 H
   0.1021868889503778    0.1355681843160280    0.1849846333324619 H
   0.5982711792794900    0.3579841834410034    0.6810114705140065 H
   0.4031564083865855    0.3682582823707132    0.8201911203648661 H
   0.1030830650935602    0.8680202248546568    0.6859009102055080 H
   0.9015987674760025    0.8589047883264168    0.8185051978979827 H
   0.4748974092667166    0.7947870300267635    0.3371883787251784 H
   0.5223886674996741    0.7978262592313369    0.1544545073019522 H
   0.9712552689873417    0.2928537474087775    0.3390921030143751 H
   0.0297620535876285    0.2946085621234342    0.1575814211220600 H
   0.5285037678444034    0.2165356333337098    0.6596884571069264 H
   0.4738077001945597    0.2019099863096176    0.8412694584959803 H
   0.0262965650570664    0.7082891877806430    0.6605548468165702 H
   0.9668053847874880    0.7037984790829959    0.8381903817226611 H
   0.4571840911561350    0.7032663902650201    0.4102292490870191 H
   0.5387888269875155    0.7013019018354407    0.0849506577213692 H
   0.9552316825952694    0.1910669312579530    0.4166683403271047 H
   0.0410749540383859    0.1923726703011516    0.0863903597582774 H
   0.5388744283629415    0.3072929595198463    0.5887245055108467 H
   0.4596716875463986    0.2946344384508915    0.9132044649941977 H
   0.0396248346313836    0.8078922233998040    0.5860163699134023 H
   0.9532522170875805    0.7958114381776185    0.9137432974517846 H
   0.4364111701269685    0.1444339318724738    0.4539414268330055 H
   0.5667902725771613    0.1382551925551837    0.0505438880337078 H
   0.9297587723928837    0.6500872221767147    0.4531139328585082 H
   0.0627643594328349    0.6504437399816866    0.0465513475180081 H
   0.5711968590753252    0.8551705646637131    0.5476458739806962 H
   0.4309749072578206    0.8484714208807168    0.9479734511630553 H
   0.0674060039451546    0.3663302059547736    0.5514424697001621 H
   0.9345372982549629    0.3449791393797200    0.9506524590648842 H
   0.3132448917015918    0.9672430704609126    0.3678262340763694 H
   0.6926921878866245    0.9581029152940097    0.1288483899769945 H
   0.8107605456568758    0.4560992644362207    0.3682873477228074 H
   0.1891615313965610    0.4633599476095058    0.1285041231664960 H
   0.6898716243593149    0.0507350748808905    0.6277254562247315 H
   0.3112153371333365    0.0296959280547951    0.8670801576291004 H
   0.1909316575365238    0.5265765757169988    0.6309528027345396 H
   0.8124813883426394    0.5395708861047824    0.8692080576713377 H
   0.2427271166838451    0.9640535665530655    0.2189769452939996 H
   0.7533421585828525    0.9763395914839677    0.2747911437342664 H
   0.7429325239516974    0.4693747759043894    0.2159095098215745 H
   0.2531705449811781    0.4703054530286037    0.2783773321556862 H
   0.7512810466967270    0.0295408822391399    0.7770068516324480 H
   0.2391856212921920    0.0360390856389900    0.7168596899519687 H
   0.2562715907188672    0.5353810656964668    0.7777729910472884 H
   0.7438893491131039    0.5313112437139557    0.7234591156855792 H
   0.5998820968673126    0.2963170328805638    0.4531853334727221 C
   0.4031265890384451    0.3039291171410711    0.0500679147697524 C
   0.0974555689330268    0.7965083486701285    0.4433011517158120 C
   0.9030175861830237    0.7975766279042923    0.0565708152009967 C
   0.4042501094474897    0.7033837003195732    0.5569034019142948 C
   0.6033225854158945    0.7018608350692691    0.9515052246176139 C
   0.8981210027259903    0.2059728036672278    0.5540178437259197 C
   0.0983205173863176    0.2029438802774160    0.9493234712272414 C
   0.3272543697504681    0.1540482307106965    0.2127936779757117 C
   0.6701148540058519    0.1678547163094143    0.2871651406763621 C
   0.8232340631997810    0.6767816571040025    0.2097626260827463 C
   0.1746883146330284    0.6686198854900228    0.2877366411661911 C
   0.6754585345229306    0.8324221913413448    0.7886422499308594 C
   0.3243719670831923    0.8344474592285751    0.7127973542515412 C
   0.1784526122716075    0.3375014433184292    0.7851723577933194 C
   0.8207603514445949    0.3408856557086074    0.7112506962189826 C
   0.3958053303558308    0.2792395428758366    0.2552369163077236 C
   0.5998210634252688    0.2792063722180533    0.2413186376418094 C
   0.8978194607377832    0.7825319953207256    0.2602439137170050 C
   0.0980553835864483    0.7749710252111734    0.2376446078520572 C
   0.6079511593173333    0.7200040890662681    0.7421853552294331 C
   0.4000718920017626    0.7295532566688182    0.7646777966641384 C
   0.0981996843024732    0.2121458471111214    0.7387418241797216 C
   0.8960515404520475    0.2175426892876104    0.7586597809931622 C
   0.6671871523383760    0.4420802695815618    0.4554237593319321 C
   0.3412642391930873    0.4368761205600551    0.0456460549488531 C
   0.1599226398572685    0.9381946937107917    0.4569375327762324 C
   0.8390627869331888    0.9362335545739937    0.0460143292031628 C
   0.3393461829701533    0.5616242034476102    0.5450482470892187 C
   0.6663420200162338    0.5515077853125834    0.9548770375017620 C
   0.8353794082334142    0.0537550000504476    0.5429859195008740 C
   0.1642328527747584    0.0574932236849577    0.9529834029737130 C
   0.6165199188738072    0.5852892553620802    0.4122333835214245 C
   0.3877180911381378    0.5790384990016900    0.0903551365966379 C
   0.1137027320625376    0.0727258303531630    0.4040460878304643 C
   0.8860883963481605    0.0842428463095827    0.0951397575552763 C
   0.3853732033212762    0.4227898526887414    0.5927139551028555 C
   0.6157962107887069    0.4044288303086325    0.9055196278072274 C
   0.8893182525113470    0.9198406501476986    0.5974173216603414 C
   0.1187693503632299    0.9092045892894987    0.9075038543265503 C
   0.6460092392946422    0.7666498781423700    0.3887937221688625 C
   0.3550303853299843    0.7652191934661654    0.1091006748886894 C
   0.1464412509675801    0.2639459340693960    0.3910634253515395 C
   0.8543523700548918    0.2577056034302260    0.1053606878363594 C
   0.3511048264042520    0.2465336554125818    0.6080687800842360 C
   0.6453796001819272    0.2405502260400249    0.8951330545793362 C
   0.8536293500446598    0.7362021793877018    0.6050556044843444 C
   0.1477439920877037    0.7270690411272636    0.8928670269948313 C
   0.4622459629440770    0.6762764802160965    0.3603416059669703 C
   0.5474675064944878    0.6820413614071227    0.1456963395822779 C
   0.9604484507272734    0.1832864085297107    0.3625192124884831 C
   0.0435830056317653    0.1805480160738935    0.1411553860576542 C
   0.5442077616230121    0.3248006205750630    0.6387536336428900 C
   0.4551050871224050    0.3129395818823787    0.8581388255021793 C
   0.0428796726439444    0.8130333182214188    0.6374679004636694 C
   0.9544911334602975    0.8228078639986854    0.8613140125437752 C
   0.4387313270844502    0.2656380234934531    0.3468680534780367 C
   0.5606056178329322    0.2614883336743092    0.1534960948350799 C
   0.9381274688037023    0.7790645778032650    0.3493225105673205 C
   0.0640716150741497    0.7716463703699135    0.1541349047177769 C
   0.5605330908822371    0.7365261734929379    0.6554468779357558 C
   0.4357520260098433    0.7377079298888369    0.8453760584957899 C
   0.0575551260104881    0.2358191099004550    0.6508956070229447 C
   0.9371262179097556    0.2265953736950050    0.8466325626455470 C
   0.4059648105313191    0.1554537226236384    0.3942829888192732 C
   0.5957450674020737    0.1562967407374950    0.1139352077482978 C
   0.9053042023799744    0.6444215777099844    0.3885597658877640 C
   0.0992558709228210    0.6441063070648422    0.1087585371295052 C
   0.5995666207737506    0.8475109293636640    0.6119023992820930 C
   0.4005803869895174    0.8580514475193751    0.8887692630078639 C
   0.0991029580567769    0.3591214798903808    0.6124879660850095 C
   0.9036526479056370    0.3373367558396705    0.8870119720140486 C
   0.3350387960032202    0.0485667868225211    0.3400656655113642 C
   0.6698097863438094    0.0471061416743201    0.1608753838930118 C
   0.8306438826527626    0.5408209173941988    0.3453064778064436 C
   0.1640508254324320    0.5392751877156529    0.1588786503950942 C
   0.6701940767532779    0.9539112636394240    0.6594546810807924 C
   0.3320540822347310    0.9534375328410016    0.8380404039428303 C
   0.1670241206557907    0.4572761423628313    0.6576939842998765 C
   0.8305860130298350    0.4696260453012234    0.8383711933281320 C
   0.2894384315721225    0.0555510816689368    0.2497063611142596 C
   0.7077933054196029    0.0553728372528233    0.2504726018365985 C
   0.7913253073480525    0.5445786031748558    0.2551877617555350 C
   0.2054737878061450    0.5385080770905403    0.2482197412708728 C
   0.7122865988961821    0.9559448147910591    0.7474418333404649 C
   0.2940674023172300    0.9461711184257802    0.7554528456568385 C
   0.2116102853328493    0.4527198495243440    0.7486173899260872 C
   0.7948678231105709    0.4474823321687700    0.7507470877886452 C
   0.5134033997937617    0.3629992007908063    0.3985972858957854 N
   0.4876071288873160    0.3795946432911134    0.1010839869333151 N
   0.0130369430517423    0.8696260559247193    0.4022694060696442 N
   0.9888566178635859    0.8772407076003257    0.1067548112729196 N
   0.4854068332443074    0.6287866932313457    0.6054105654654465 N
   0.5157663324925019    0.6221648124893466    0.8944566594672119 N
   0.9887002535388706    0.1162293475470638    0.6037811227640515 N
   0.0109370264471337    0.1176745279937863    0.8951824037187368 N
   0.5274958187426534    0.5360908611938290    0.3657703043091352 N
   0.4778842314070020    0.5554341771458078    0.1359851229388344 N
   0.0268918110288229    0.0320908248904280    0.3699412832609805 N
   0.9755570285135062    0.0458621529509208    0.1293217383620645 N
   0.4752632142658865    0.4557904235950745    0.6294362406228224 N
   0.5280513844356499    0.4651855342178167    0.8715245367936187 N
   0.9744471930213466    0.9525388125105659    0.6353406704361051 N
   0.0301039580455673    0.9498813880865715    0.8697408360624299 N
   0.6079296983164074    0.1473412059359859    0.4729345555580083 O
   0.3860582076984080    0.1382859348584161    0.0227226625941018 O
   0.1142902884501447    0.6460374614852230    0.4794467221999607 O
   0.8900103939959265    0.6523527976282792    0.0206347665644992 O
   0.3882871770252943    0.8558009868925619    0.5234371998920427 O
   0.6102705839880384    0.8561345697008733    0.9741200073389166 O
   0.8932675627108696    0.3627622387297557    0.5269592348317567 O
   0.1146607242454059    0.3546270028067529    0.9741988250313056 O
