H96 C88 N16 O8
1.0
  14.9466859165839328    0.0000000000000000   -7.4769135584806277
  -0.0000000000000005    7.3864000000000001    0.0000000000000005
   0.0000000000000000    0.0000000000000000   17.5904999999999987
H C N O
96 88 16 8
direct
   0.2988430053845096    0.1719621221364792    0.1501344490701809 H
   0.7038739522592138    0.1764202876808136    0.3478065398454720 H
   0.7980277875299676    0.6725931233193503    0.1552981693577302 H
   0.1997559089740383    0.6668500274843623    0.3461983426570011 H
   0.7039562530927667    0.8287179106436038    0.8471670922583102 H
   0.2973624180051976    0.8266387149222427    0.6498277940788416 H
   0.2041360889974812    0.3249452097698775    0.8477808573475958 H
   0.7987753655685288    0.3204470288573661    0.6520673745366136 H
   0.4232511319707716    0.3637350154658239    0.2335852314115043 H
   0.5811167601858572    0.3545511943003653    0.2685820925267441 H
   0.9179169829797379    0.8613529414696136    0.2303752971086366 H
   0.0768694237126605    0.8568497281097831    0.2671717473656743 H
   0.5786869126487970    0.6336010110971084    0.7671117007158736 H
   0.4176552330479282    0.6404082730622663    0.7305059851772298 H
   0.0776696936804074    0.1453353244075231    0.7672062027956534 H
   0.9192422058191908    0.1417591451648040    0.7300202579777756 H
   0.7274837086271733    0.4354909057135504    0.4851633650918108 H
   0.2763361363644408    0.4347585356304113    0.0173596573315896 H
   0.2220711503749388    0.9368582327596285    0.4835262073844734 H
   0.7723889457721529    0.9304326023383088    0.0126792260936775 H
   0.2779702950209224    0.5664665757001586    0.5168439887483383 H
   0.7235732186993119    0.5644537259603245    0.9877923440527555 H
   0.7726533862614644    0.0634977918402169    0.5114563637469699 H
   0.2230662563079132    0.0644347387957453    0.9827033581709413 H
   0.7126920371539541    0.7583209216962021    0.4160384062070790 H
   0.2902718036308662    0.7556340927881697    0.0862557582723310 H
   0.2131004723334846    0.2528393626507217    0.4111547104964209 H
   0.7881437405649072    0.2606895995299428    0.0848813374149112 H
   0.2886494999587816    0.2495906366883319    0.5882240552436097 H
   0.7097495915671395    0.2450169486629905    0.9104444124245553 H
   0.7851823845137107    0.7401559123877350    0.5844427100198404 H
   0.2092503717931237    0.7425846592868910    0.9127188026925106 H
   0.6363050139975656    0.8525561867305307    0.4264593215635109 H
   0.3667776231874122    0.8529664337240674    0.0780003824483086 H
   0.1358853216292008    0.3572548948809866    0.4274051143866429 H
   0.8690902386900071    0.3513972080588437    0.0774424104130986 H
   0.3681278835382187    0.1411571931996118    0.5780031934517580 H
   0.6362672785802870    0.1427105871797982    0.9269735137228515 H
   0.8662550589541630    0.6391713957362922    0.5735148963659009 H
   0.1359347185750281    0.6437118091999080    0.9241183084124637 H
   0.6191519218529359    0.7917019604181796    0.3355123730789072 H
   0.3787650414101124    0.7892444324073894    0.1670486150787942 H
   0.1163666839920162    0.2849365440498257    0.3318941957997678 H
   0.8797768068375297    0.2952562962197082    0.1656184850155591 H
   0.3812580177719000    0.2036961915578295    0.6688254232615163 H
   0.6189631800001535    0.2155680306350812    0.8335505573520212 H
   0.8825304244138287    0.7033721984679365    0.6666043386446915 H
   0.1156887276657197    0.7131755900811355    0.8324855900434603 H
   0.4015351930347572    0.6407784689686651    0.3167119762466911 H
   0.6012706883599116    0.6345911836243342    0.1850879014201701 H
   0.9019876518909626    0.1391563325297042    0.3188124383345988 H
   0.0989017672986058    0.1364714061344532    0.1805267042066095 H
   0.5994712661756475    0.3613958762584510    0.6846792243427950 H
   0.4004624848978823    0.3651728405619726    0.8191153187085346 H
   0.1032161405763764    0.8583542165654857    0.6860450319240644 H
   0.9018557874890917    0.8583544843264966    0.8182329584368829 H
   0.4754698170845329    0.7911044957815672    0.3415958963168331 H
   0.5254933064752713    0.7894106527243967    0.1581920095767609 H
   0.9729033714492602    0.2911331349674532    0.3381310827786058 H
   0.0305199321198502    0.2936236746309002    0.1604148869863213 H
   0.5275596472806309    0.1999371049955242    0.6578853075784058 H
   0.4727808844310484    0.1985767492128905    0.8396782599454581 H
   0.0253210342498679    0.7042615601009672    0.6610233378639105 H
   0.9736240769027668    0.7113609308847719    0.8415352282285051 H
   0.4569962220022134    0.7031381293312399    0.4141416921175100 H
   0.5427022387489909    0.6897479715409460    0.0861927460397933 H
   0.9573238407340824    0.1992451964361053    0.4113312280357391 H
   0.0444483385732311    0.1966284133190747    0.0845181986659248 H
   0.5393766443328326    0.3024280286965714    0.5855854028153754 H
   0.4601235157131198    0.3059255963963949    0.9165548305252624 H
   0.0424875394382964    0.7979626085710658    0.5876295822947913 H
   0.9581118948804558    0.8058053654159584    0.9116386284121794 H
   0.4337862696196003    0.1416892772649722    0.4515569501059726 H
   0.5704618693044775    0.1445376893721859    0.0486013278267826 H
   0.9336454139846342    0.6421027280041215    0.4495457806823698 H
   0.0720303467789866    0.6464245804059882    0.0514633321965986 H
   0.5719493962638390    0.8543172674495229    0.5509118897844164 H
   0.4294936517427577    0.8504300129841265    0.9472022225296258 H
   0.0710786556090570    0.3518247266312879    0.5494555971788502 H
   0.9316065267749972    0.3590872188698787    0.9480260646660021 H
   0.3068750102903766    0.9643335118315015    0.3668631009907379 H
   0.6919279306114121    0.9619654914012004    0.1342599006814068 H
   0.8100282962270837    0.4649279784464427    0.3710473576432188 H
   0.1905201683415432    0.4656506301288461    0.1328021584498509 H
   0.6877564502468406    0.0389636109170441    0.6286448254044100 H
   0.3113992915767481    0.0421708686089763    0.8716688053126497 H
   0.1893410982869482    0.5360868308426289    0.6285450961617489 H
   0.8084284639282595    0.5377168357628312    0.8710306860800813 H
   0.2413547552597383    0.9735417617322077    0.2188089644341281 H
   0.7589010935278936    0.9689326747824923    0.2811977198611120 H
   0.7433083887590729    0.4706905004359287    0.2228929376673639 H
   0.2549743661385708    0.4717778031912340    0.2763612324404305 H
   0.7547465339681324    0.0230250571070098    0.7795020397957413 H
   0.2443800942223716    0.0275882594673456    0.7178961457396436 H
   0.2566885523262845    0.5262985384726960    0.7774373615393849 H
   0.7437572884009155    0.5302176051217216    0.7231530141622560 H
   0.6004550810478787    0.2959996586648052    0.4467207345514918 C
   0.3992710590376968    0.3035463937591230    0.0535520285923257 C
   0.1013256436734297    0.7948505193893503    0.4484597832833590 C
   0.9024372551212709    0.7971580695969478    0.0541875418391412 C
   0.4028755252349190    0.6956286800846081    0.5535848290785010 C
   0.6015483580808073    0.6954049849287148    0.9508194363672208 C
   0.9035246542082382    0.2010102572159682    0.5524868627218726 C
   0.0991642337655019    0.1943825170230257    0.9463378628377009 C
   0.3235230995588920    0.1711758439866532    0.2117727009041341 C
   0.6736141211610310    0.1624717443837800    0.2845460976912049 C
   0.8258313918449285    0.6737015956319954    0.2126561557174547 C
   0.1712472102937024    0.6691873060983079    0.2840855610340602 C
   0.6745924769545425    0.8373938264968788    0.7890893833901775 C
   0.3230918772212914    0.8349117098327224    0.7128025868090935 C
   0.1734042844043354    0.3282686198371471    0.7845159357939085 C
   0.8232360593491947    0.3295796746562265    0.7120348455037365 C
   0.3953043446144903    0.2791956164254582    0.2583937812929259 C
   0.6042955155277240    0.2772654397319003    0.2387726256602471 C
   0.8957687204379102    0.7821258491476679    0.2594200373466398 C
   0.1035714791350132    0.7801735328981836    0.2380455519579285 C
   0.6032312983174917    0.7242552318982528    0.7376857637569721 C
   0.3984331432562081    0.7156898695492708    0.7597779506880772 C
   0.1023789882194342    0.2182638836577564    0.7418970171020967 C
   0.8978116508907616    0.2216507258513283    0.7576433821316053 C
   0.6586902255781802    0.4386465049891572    0.4519566958404917 C
   0.3361455809851910    0.4355333320403984    0.0448612913287379 C
   0.1609046802588451    0.9381640373504959    0.4513138113265283 C
   0.8394024322650956    0.9416571289411366    0.0435961802093321 C
   0.3355438203810302    0.5608221410226852    0.5460605264357794 C
   0.6620748266348419    0.5625982113581328    0.9519044175042342 C
   0.8366367596458648    0.0640767290744084    0.5465132470649805 C
   0.1620134477081978    0.0532354941414307    0.9555391480022657 C
   0.6126878005081249    0.5845227013224116    0.4041183971203741 C
   0.3853052352323363    0.5791142239123797    0.0906705595467404 C
   0.1155522319358869    0.0774064845212713    0.4088371205040434 C
   0.8876360226097100    0.0866388829741355    0.0928299545595439 C
   0.3879944651895025    0.4197858000818357    0.5932957968479562 C
   0.6134223604869643    0.4225055370925057    0.9054684232802530 C
   0.8841715557151422    0.9149187157208754    0.5898938271809022 C
   0.1163428706065348    0.9128538431744798    0.9096342088825460 C
   0.6490571579626501    0.7670112505212048    0.3948678471748646 C
   0.3522875817647812    0.7636170265147475    0.1040329990571665 C
   0.1503138997513987    0.2617864653126898    0.3958343695502664 C
   0.8521188672163993    0.2644041505791608    0.1041038016805617 C
   0.3493340753851800    0.2393740091633304    0.6061477175338792 C
   0.6478221652907031    0.2322537755762838    0.8921504579695470 C
   0.8556539529026926    0.7367717856945011    0.6073559011611459 C
   0.1446197785192029    0.7348158590795885    0.8917377985255962 C
   0.4597100796917211    0.6809124541623259    0.3620172270885726 C
   0.5448959681716963    0.6762250442479388    0.1419022138443424 C
   0.9609788272855854    0.1773157175238761    0.3604357228509500 C
   0.0422765561853413    0.1851636758227322    0.1394102084700882 C
   0.5439896662994176    0.3207766001235657    0.6442350074628432 C
   0.4604919287516649    0.3237759385313051    0.8609336252696501 C
   0.0446428465987809    0.8205642600441009    0.6403283728656823 C
   0.9573311881431228    0.8259183696248142    0.8600648570002946 C
   0.4382221345748328    0.2688894264281445    0.3460842718325741 C
   0.5606619652829141    0.2696281535747239    0.1531570409152669 C
   0.9391840615307260    0.7620798001666379    0.3488176431274820 C
   0.0593969163618800    0.7682240204920903    0.1518537824490066 C
   0.5653048935139146    0.7318005845288068    0.6521007735595510 C
   0.4371270850560592    0.7277396959493411    0.8506255148505427 C
   0.0591711716317057    0.2303352063113353    0.6485949229618022 C
   0.9388883471194335    0.2338072390958839    0.8465993041588087 C
   0.4055439127816977    0.1537156185247805    0.3874036204393590 C
   0.5959226910386647    0.1445909889683690    0.1097647051882109 C
   0.9032537210201785    0.6550451553687970    0.3907409635115766 C
   0.0925885399324292    0.6469098809954831    0.1090385910044488 C
   0.5924142676697809    0.8523100406110286    0.6086712321066312 C
   0.4024124925699553    0.8475140267041836    0.8865867261850322 C
   0.0964070395543989    0.3455900695550326    0.6131763122785365 C
   0.9040583563314891    0.3430645292847060    0.8903172415846743 C
   0.3330970518640955    0.0417815837008565    0.3443247164004443 C
   0.6684968905347709    0.0407216831755667    0.1618433640075382 C
   0.8343597887372527    0.5373495820524725    0.3438486701082002 C
   0.1687086634748439    0.5401729609744633    0.1564857784350348 C
   0.6673688249949974    0.9537178479544678    0.6602599066190586 C
   0.3337602550891194    0.9530905344192242    0.8420204886170987 C
   0.1661878937081883    0.4641498347811853    0.6566447782916414 C
   0.8325872776099345    0.4538637076649810    0.8431130692614482 C
   0.2935517521053668    0.0465969247219155    0.2505781071344547 C
   0.7058522332273107    0.0451455677784904    0.2437938862991992 C
   0.7953249166471232    0.5422933477253029    0.2547230378773455 C
   0.2092328974848887    0.5445768353184078    0.2464034848803033 C
   0.7054702365983583    0.9486359343012610    0.7482841282953286 C
   0.2904703895171011    0.9504425583436746    0.7508313441888659 C
   0.2045758884269861    0.4514590702690888    0.7436651840927585 C
   0.7959252944100694    0.4563612140948745    0.7550847919192265 C
   0.5117269978761527    0.3768113448779701    0.3988940016102063 N
   0.4876108911869289    0.3775081602791036    0.1037271297035071 N
   0.0164418944993009    0.8728518687903216    0.4020236259925891 N
   0.9829601965733088    0.8715216200762737    0.1013267129246161 N
   0.4862702253636272    0.6257477715228006    0.6040691055407539 N
   0.5171277880850282    0.6206685352823061    0.8993689272203802 N
   0.9831919624143243    0.1262142488725783    0.6021844412002970 N
   0.0171377259417020    0.1219985084402109    0.9015584068720450 N
   0.5251646871201026    0.5393286815997040    0.3650824108159877 N
   0.4777525466421146    0.5392534517079035    0.1339921127874853 N
   0.0242196258345371    0.0503269836413376    0.3674176909605477 N
   0.9771753199030770    0.0383405655429725    0.1333559881398477 N
   0.4760585915196275    0.4608986173447775    0.6352729203468829 N
   0.5229653689041251    0.4546502667240138    0.8685762754911865 N
   0.9778097369869854    0.9562809198864094    0.6359447312645069 N
   0.0272378635593369    0.9605387991100471    0.8676507485734346 N
   0.6083121684298615    0.1429133639558323    0.4735630675304827 O
   0.3918450388567556    0.1429295841565664    0.0259806632609658 O
   0.1102733877504792    0.6465949968547542    0.4728288517641139 O
   0.8877025107455387    0.6490153475751821    0.0218988361035732 O
   0.3887136733062604    0.8624246120055974    0.5241776554211864 O
   0.6131433882190042    0.8521633327734651    0.9784798526367064 O
   0.8879983515818076    0.3619560002072484    0.5248355521005401 O
   0.1088618925085863    0.3569628111625325    0.9729561735656812 O
