H96 C88 N16 O8
1.0
  15.4291666636613165    0.0000000000000000   -7.7182691914056569
  -0.0000000000000005    7.6248338448069086    0.0000000000000005
   0.0000000000000000    0.0000000000000000   18.1583233709352214
H C N O
96 88 16 8
direct
   0.3047895857315683    0.1677556490699469    0.1572161797719722 H
   0.6963140236143811    0.1766511989700057    0.3487818672404311 H
   0.8030340150707939    0.6768096024314643    0.1589740551108564 H
   0.1974648811244703    0.6629537055195884    0.3432295329410130 H
   0.6987774715414439    0.8142131715654664    0.8454459155859876 H
   0.3015562426584115    0.8264612451280513    0.6593368951116856 H
   0.2025773610727143    0.3138070951920194    0.8482140853478017 H
   0.8024852407470183    0.3157479374571022    0.6557537782404378 H
   0.4256728089046473    0.3601974317916082    0.2389606736473219 H
   0.5844858812390279    0.3675578508248644    0.2672444550249043 H
   0.9248762126506682    0.8653546625622588    0.2386417805951928 H
   0.0783509584951401    0.8729586122320593    0.2652476697228071 H
   0.5728440986297655    0.6378536421381036    0.7647434749218260 H
   0.4221790655647895    0.6531295570508973    0.7345350072300250 H
   0.0857960327309586    0.1390104613137727    0.7712225339098383 H
   0.9201390529733681    0.1419432066015325    0.7272857550956412 H
   0.7246372173812750    0.4238507833584271    0.4892960781965229 H
   0.2804113417447707    0.4261201689511754    0.0160670651618675 H
   0.2275856914122599    0.9466281489171426    0.4875002033229273 H
   0.7743080471069780    0.9476283806229797    0.0131271300587307 H
   0.2791881424135599    0.5636930670751276    0.5115171464430163 H
   0.7251275632215520    0.5641466680511311    0.9802526936165462 H
   0.7748572941277035    0.0790258621600565    0.5150787701723956 H
   0.2260732697890790    0.0663971720814885    0.9807095738005529 H
   0.7121150012324453    0.7567095125298029    0.4187570994790537 H
   0.2855931814575324    0.7551967813617506    0.0913465276273278 H
   0.2059776020193539    0.2573550402976797    0.4120118515372982 H
   0.7898991009679598    0.2650961439952207    0.0838826940232225 H
   0.2923849918086109    0.2380237184145214    0.5856238476542899 H
   0.7065641915792643    0.2417294380568348    0.9080525789607826 H
   0.7895216174102981    0.7330707713659662    0.5907954530516372 H
   0.2163972566358251    0.7355728804101771    0.9179683429766466 H
   0.6270081987800029    0.8511728554735787    0.4228818993355386 H
   0.3684704917578200    0.8515471818929257    0.0708017001515574 H
   0.1362376862097740    0.3432692085938076    0.4251962582258118 H
   0.8711118259781117    0.3559813837538276    0.0814394216930074 H
   0.3713208030906783    0.1405481484192314    0.5809873450825231 H
   0.6346495277486150    0.1488067304819733    0.9305678920763191 H
   0.8655304106887143    0.6466005076460513    0.5803430261875995 H
   0.1276897427027195    0.6386085824334820    0.9240619506842548 H
   0.6120552476036399    0.7950301723149259    0.3282086619519625 H
   0.3791053007712391    0.7817891356761354    0.1628514495791246 H
   0.1160206330453343    0.3033513109934193    0.3325034196560929 H
   0.8797973611520562    0.2964554166094317    0.1618807839263581 H
   0.3787268703689015    0.2011588901357161    0.6699066655934539 H
   0.6189747297756900    0.2193430746653005    0.8365109197851766 H
   0.8759741274349343    0.7036156075830678    0.6662068035987162 H
   0.1214471516335272    0.7207125787982493    0.8349468131805104 H
   0.3943361394426931    0.6356024063191614    0.3190483627664635 H
   0.6064437836409152    0.6348846386129127    0.1883880140615562 H
   0.9033985729785949    0.1323524263928030    0.3161365118765461 H
   0.0946158280106835    0.1398431644606475    0.1800977488042231 H
   0.5969413005055094    0.3536957399964571    0.6780541684587729 H
   0.3926646843971765    0.3663434069976053    0.8147851831472464 H
   0.0960122206985217    0.8685756910117627    0.6798961932138810 H
   0.8991922527488660    0.8594389785170452    0.8114607554438613 H
   0.4727259998622364    0.8065979513131134    0.3432726991947113 H
   0.5220337552790278    0.7870455588042191    0.1585518862018273 H
   0.9720035286636838    0.2923013137871612    0.3456516622590710 H
   0.0264622258481475    0.2819519535059163    0.1607439960481258 H
   0.5224064429454556    0.1986956691103211    0.6603121862392258 H
   0.4679822970064079    0.2050457173668470    0.8424256271757519 H
   0.0248525920416650    0.7140435084678624    0.6622866339118839 H
   0.9693623035779857    0.7026220693844104    0.8437971184180357 H
   0.4519251617201469    0.6920253353548058    0.4141500688537066 H
   0.5369713993511988    0.7016569623420038    0.0812919305671986 H
   0.9546416786319574    0.1844078176252086    0.4119868574040362 H
   0.0479035249520220    0.2037639308257381    0.0869062980074301 H
   0.5389623624924215    0.3049936549898235    0.5797120788333558 H
   0.4638176348102542    0.3079544474941148    0.9166330639447118 H
   0.0404069740867216    0.8106863413871273    0.5895879744931174 H
   0.9635656337810069    0.8088201356912756    0.9157042755655010 H
   0.4363792157408718    0.1373568345438324    0.4510519864760151 H
   0.5650917359934567    0.1512054772818194    0.0444289904715695 H
   0.9335221467131855    0.6411968047813559    0.4557297609333320 H
   0.0704733704543257    0.6542628982968959    0.0467447782664075 H
   0.5649297466673904    0.8429553884981442    0.5482035052345142 H
   0.4365197740929206    0.8538207785264139    0.9555729397041928 H
   0.0745710477643138    0.3605034619217904    0.5531442637929282 H
   0.9259947947200758    0.3461025874282418    0.9483934667440503 H
   0.3137890032890454    0.9595090837141547    0.3665027437313247 H
   0.6840882642239454    0.9603682627211169    0.1292562293228776 H
   0.8097858894251276    0.4584284322223624    0.3633856662701416 H
   0.1910968799355765    0.4492557158429378    0.1280393268056526 H
   0.6897825462366992    0.0271897563301938    0.6327261811293797 H
   0.3158348255279262    0.0388570438222866    0.8727305525198291 H
   0.1926461052895275    0.5502803955439106    0.6352235119341074 H
   0.8031757381774881    0.5402504237177017    0.8639159268025156 H
   0.2403486403541213    0.9778761503402181    0.2154984255120306 H
   0.7531359529455534    0.9688203591566874    0.2731127507008886 H
   0.7492142193743966    0.4661655976937845    0.2193102135813336 H
   0.2568697251693243    0.4579939270353662    0.2780778520894378 H
   0.7525017058099449    0.0412874944181964    0.7781667862967504 H
   0.2472639901336327    0.0410947105494286    0.7232236730588363 H
   0.2600677785036193    0.5213089197344493    0.7839024848020388 H
   0.7385385013315705    0.5339317536779217    0.7203259857761287 H
   0.6035799828587429    0.2898529745922533    0.4511249668958475 C
   0.4035905572686191    0.2887471209429736    0.0528216014223678 C
   0.0956213689817041    0.7935364841476942    0.4432367906941541 C
   0.9028575802693851    0.8010804740319296    0.0474332139646455 C
   0.4069753790876328    0.6998953376193531    0.5549892818743078 C
   0.5952157421672860    0.6938487238412879    0.9500133690860756 C
   0.9004208436228310    0.1863059710368062    0.5530122911835552 C
   0.1020826759866856    0.1868766111527209    0.9499357022826224 C
   0.3255554201944365    0.1732833355748926    0.2079973574103009 C
   0.6726907281456024    0.1803111624600869    0.2868410003008393 C
   0.8203248550357450    0.6737529019315922    0.2108666373809510 C
   0.1721289692731321    0.6649431413625809    0.2805753267233329 C
   0.6674736534037795    0.8348727169808774    0.7855028979967357 C
   0.3197261058164020    0.8304716006951839    0.7093018972809932 C
   0.1780605868011196    0.3229367041300890    0.7899063290224954 C
   0.8207503318022727    0.3260077439749431    0.7092844994851217 C
   0.3924337129894897    0.2810414902086551    0.2559029780180300 C
   0.6061630088912103    0.2708318641956811    0.2383213539971105 C
   0.8985515566661910    0.7911012162034408    0.2594820862861798 C
   0.1007760097608811    0.7723124349908024    0.2338349575841494 C
   0.5981914211115685    0.7195906157360972    0.7426301955291839 C
   0.3989709906357755    0.7350927809039129    0.7594297343680619 C
   0.1051244975971832    0.2225406268665374    0.7456485019893454 C
   0.9032596178335595    0.2129708133979811    0.7634351500813501 C
   0.6649954842784732    0.4376781640198971    0.4603848594365373 C
   0.3397258240687255    0.4533091054538003    0.0447502603094161 C
   0.1588179018563412    0.9458851508086616    0.4576386067415907 C
   0.8384040911635451    0.9519339463075303    0.0489783921002129 C
   0.3336560151720194    0.5673803735193651    0.5415447587531855 C
   0.6682577423263979    0.5570481289212371    0.9567584197216595 C
   0.8325941743393275    0.0560137714650594    0.5407902411114658 C
   0.1627406064748239    0.0680811436579841    0.9588998228249971 C
   0.6171990311789798    0.5892236398957120    0.4034288166070857 C
   0.3897687214525690    0.5757208145989734    0.0975428911862517 C
   0.1175277819683225    0.0715752294470409    0.4102148786187224 C
   0.8814294217704052    0.0919637246448978    0.0883940882770298 C
   0.3792358679878716    0.4224750664548908    0.5890180769696219 C
   0.6144173240269448    0.4228177211581007    0.9120153287829820 C
   0.8875786989106071    0.9223137963554258    0.5891576785271416 C
   0.1212504847396754    0.9208037327204712    0.9092197531029936 C
   0.6429190004345260    0.7695832936717721    0.3937312645542915 C
   0.3495734737321306    0.7710513646770032    0.1087791777642216 C
   0.1432700374232528    0.2515313844062960    0.3900344240442547 C
   0.8523206066542454    0.2549834086684438    0.1017989820848830 C
   0.3481024776848137    0.2485018690054808    0.6048726660981794 C
   0.6530864140954012    0.2433275436443631    0.8978001449135512 C
   0.8514297311147515    0.7251014686188442    0.6068989940230385 C
   0.1469329260091920    0.7471252862408662    0.8886092753110176 C
   0.4572391924908012    0.6817885075648930    0.3530236961207133 C
   0.5468917042856350    0.6868007468742803    0.1404277490912936 C
   0.9614054693454253    0.1913787229558956    0.3604151068590339 C
   0.0354899935921866    0.1817563340273071    0.1380791136434366 C
   0.5448919067044359    0.3198793078119309    0.6474514491315977 C
   0.4603111432246207    0.3325952938752722    0.8590736144735659 C
   0.0393157669295413    0.8201076529680164    0.6347469717952379 C
   0.9629040850957954    0.8144751645978212    0.8581144124639543 C
   0.4380181109014086    0.2657707506554333    0.3432364038105269 C
   0.5596621304501435    0.2556304105722700    0.1499100873212125 C
   0.9342862819978929    0.7742942426717311    0.3432285565895067 C
   0.0603790182480747    0.7578332257565664    0.1471624587356782 C
   0.5623768031716931    0.7345347292024951    0.6568969379130875 C
   0.4327527728465039    0.7245013235545869    0.8484147590703693 C
   0.0633618760656391    0.2374467103776355    0.6467450908745712 C
   0.9436440388276218    0.2263615665367636    0.8532610209144893 C
   0.4094044554067878    0.1538638080597604    0.3876763075189537 C
   0.5982990230957737    0.1435615251384479    0.1158341620327994 C
   0.9053473379620313    0.6451737158549219    0.3846456976099386 C
   0.0967420852661866    0.6385938930052931    0.1089808909196085 C
   0.5969534182511270    0.8613934343997386    0.6091715439031274 C
   0.4013135698420331    0.8604244584908918    0.8867349579126522 C
   0.1008178850210337    0.3520326217814112    0.6158204579790379 C
   0.8986644488787642    0.3532670686761435    0.8851877754792822 C
   0.3327674083667083    0.0491482977766319    0.3369876445850055 C
   0.6627599124492316    0.0379648806299920    0.1529862984351675 C
   0.8288621169988553    0.5464492792693986    0.3440420071563712 C
   0.1646054080172118    0.5418436746097310    0.1624634848544859 C
   0.6690274418823808    0.9564442160265814    0.6647604624559622 C
   0.3326760543247859    0.9688844632815377    0.8453679946532662 C
   0.1640836123989508    0.4637011563986099    0.6616149072858247 C
   0.8340990405478033    0.4526872099348129    0.8467676922491651 C
   0.2963047819532442    0.0388222024486577    0.2580957530744667 C
   0.7018645102007900    0.0486666570104118    0.2407664102562131 C
   0.7907012557419337    0.5380724597178317    0.2556062290736580 C
   0.2010008810485331    0.5483918435531694    0.2472517778775028 C
   0.7104946659613520    0.9580082533359073    0.7524037858852206 C
   0.2873725854215121    0.9572269811974000    0.7524958687456832 C
   0.2003683845131076    0.4567588170904617    0.7444477773409626 C
   0.7880384240025488    0.4465712911078258    0.7485671683637961 C
   0.5147903481146113    0.3882453756344173    0.4003365341971300 N
   0.4848299384906585    0.3624263862219821    0.0987290851777949 N
   0.0195456788606511    0.8675713607618309    0.4034296959195133 N
   0.9901866604547425    0.8739845718196723    0.0991528296197412 N
   0.4894580755506918    0.6217110054818300    0.5984652610720436 N
   0.5083069544636085    0.6256296974329025    0.8946239004644790 N
   0.9856366987535585    0.1367647071142158    0.5983242893499893 N
   0.0178681395257416    0.1141605563720465    0.9024963725655401 N
   0.5222011151384002    0.5343639620835267    0.3693840382765400 N
   0.4697176517648936    0.5412939984847150    0.1276685412468762 N
   0.0295201295377036    0.0422686835748163    0.3651234719026273 N
   0.9753764881081572    0.0318829524434821    0.1357395929043319 N
   0.4762031570321352    0.4437935489035795    0.6355487171157965 N
   0.5289631733871976    0.4654258545743174    0.8667251862346799 N
   0.9689705565082930    0.9570557259369017    0.6284723758417211 N
   0.0191513787515994    0.9486877725763694    0.8645511133119347 N
   0.6064225596400536    0.1391688080108477    0.4705701016897871 O
   0.3868941087165804    0.1360396121345875    0.0277084937979667 O
   0.1126688338834773    0.6574143000922689    0.4773520592790253 O
   0.8876730107116059    0.6463031126143692    0.0293599016124190 O
   0.3873552497073356    0.8449548509977988    0.5203438754586951 O
   0.6084240372856422    0.8463027384329899    0.9713046107282439 O
   0.8857159141263318    0.3469641738454138    0.5193629673968316 O
   0.1058844165588127    0.3540863556231320    0.9703080860382121 O
