H96 C88 N16 O8
1.0
  14.9466859165839328    0.0000000000000000   -7.4769135584806277
  -0.0000000000000005    7.3864000000000001    0.0000000000000005
   0.0000000000000000    0.0000000000000000   17.5904999999999987
H C N O
96 88 16 8
direct
   0.2990000000000000    0.1731000000000000    0.1530000000000000 H
   0.7010000000000001    0.1731000000000000    0.3470000000000000 H
   0.7816905650140635    0.7548323306566619    0.1456425542687254 H
   0.2010000000000000    0.6731000000000000    0.3470000000000000 H
   0.7010000000000001    0.8269000000000000    0.8470000000000000 H
   0.2990000000000000    0.8269000000000000    0.6530000000000000 H
   0.2010000000000000    0.3269000000000000    0.8470000000000000 H
   0.7989999999999999    0.3269000000000000    0.6530000000000000 H
   0.4206000000000000    0.3599000000000000    0.2331000000000000 H
   0.5794000000000000    0.3599000000000000    0.2669000000000000 H
   0.8854131326519191    0.9815227461455275    0.2181436789428768 H
   0.0794000000000000    0.8599000000000000    0.2669000000000000 H
   0.5794000000000000    0.6401000000000000    0.7669000000000000 H
   0.4206000000000000    0.6401000000000000    0.7331000000000000 H
   0.0794000000000000    0.1401000000000000    0.7669000000000000 H
   0.9206000000000000    0.1401000000000000    0.7331000000000000 H
   0.7249000000000000    0.4343000000000000    0.4858000000000000 H
   0.2751000000000000    0.4343000000000000    0.0142000000000000 H
   0.1938978173098317    0.8103344063639049    0.4726223961741502 H
   0.7751000000000000    0.9343000000000000    0.0142000000000000 H
   0.2751000000000000    0.5657000000000000    0.5142000000000000 H
   0.7249000000000000    0.5657000000000000    0.9858000000000000 H
   0.7751000000000000    0.0657000000000000    0.5142000000000000 H
   0.2248999999999999    0.0657000000000000    0.9858000000000000 H
   0.7124000000000000    0.7564000000000000    0.4132000000000000 H
   0.2876000000000000    0.7564000000000000    0.0868000000000000 H
   0.2397610307374468    0.1383409272225268    0.4248299173812468 H
   0.7876000000000000    0.2564000000000000    0.0868000000000000 H
   0.2876000000000000    0.2436000000000000    0.5868000000000000 H
   0.7124000000000000    0.2436000000000000    0.9132000000000000 H
   0.7876000000000000    0.7436000000000000    0.5868000000000000 H
   0.2124000000000001    0.7436000000000000    0.9132000000000000 H
   0.6333000000000000    0.8552999999999999    0.4247000000000000 H
   0.3667000000000000    0.8552999999999999    0.0753000000000000 H
   0.1533757329120737    0.2079439182422168    0.4332332719141992 H
   0.8667000000000000    0.3552999999999999    0.0753000000000000 H
   0.3667000000000000    0.1447000000000001    0.5752999999999999 H
   0.6333000000000000    0.1447000000000001    0.9247000000000001 H
   0.8667000000000000    0.6447000000000001    0.5752999999999999 H
   0.1333000000000000    0.6447000000000001    0.9247000000000001 H
   0.6181000000000000    0.7907000000000000    0.3324000000000000 H
   0.3819000000000000    0.7907000000000000    0.1676000000000000 H
   0.1439502394415373    0.1389842964943551    0.3433877493971405 H
   0.8819000000000000    0.2907000000000000    0.1676000000000000 H
   0.3819000000000000    0.2093000000000000    0.6676000000000000 H
   0.6181000000000000    0.2093000000000000    0.8324000000000000 H
   0.8819000000000000    0.7093000000000000    0.6676000000000000 H
   0.1181000000000001    0.7093000000000000    0.8324000000000000 H
   0.3987000000000000    0.6394000000000000    0.3169000000000000 H
   0.6012999999999999    0.6394000000000000    0.1831000000000000 H
   0.9256748295848973    0.2642734445882787    0.3283657610108310 H
   0.1013000000000000    0.1394000000000000    0.1831000000000000 H
   0.6012999999999999    0.3606000000000000    0.6831000000000000 H
   0.3987000000000000    0.3606000000000000    0.8169000000000000 H
   0.1013000000000000    0.8606000000000000    0.6831000000000000 H
   0.8987000000000001    0.8606000000000000    0.8169000000000000 H
   0.4727000000000000    0.7949000000000001    0.3404000000000000 H
   0.5273000000000000    0.7949000000000001    0.1596000000000000 H
   0.9852065263673793    0.4434134861581384    0.3457159498914615 H
   0.0273000000000000    0.2949000000000002    0.1596000000000000 H
   0.5273000000000000    0.2050999999999999    0.6596000000000000 H
   0.4727000000000000    0.2050999999999999    0.8404000000000000 H
   0.0273000000000000    0.7050999999999999    0.6596000000000000 H
   0.9727000000000000    0.7050999999999999    0.8404000000000000 H
   0.4575000000000000    0.6965000000000000    0.4140000000000000 H
   0.5425000000000000    0.6965000000000000    0.0860000000000000 H
   0.9786815460838927    0.3411673623584637    0.4230033022997777 H
   0.0425000000000000    0.1964999999999999    0.0860000000000000 H
   0.5425000000000000    0.3035000000000000    0.5860000000000001 H
   0.4575000000000000    0.3035000000000000    0.9139999999999999 H
   0.0425000000000000    0.8035000000000000    0.5860000000000001 H
   0.9575000000000000    0.8035000000000000    0.9139999999999999 H
   0.4313000000000000    0.1459000000000000    0.4498000000000000 H
   0.5687000000000000    0.1459000000000000    0.0502000000000000 H
   0.9143147715271573    0.7745336986894031    0.4425803595655332 H
   0.0687000000000000    0.6459000000000000    0.0502000000000000 H
   0.5687000000000000    0.8541000000000000    0.5502000000000000 H
   0.4313000000000000    0.8541000000000000    0.9498000000000000 H
   0.0687000000000000    0.3541000000000000    0.5502000000000000 H
   0.9313000000000000    0.3541000000000000    0.9498000000000000 H
   0.3093000000000000    0.9601999999999999    0.3688000000000000 H
   0.6907000000000000    0.9601999999999999    0.1312000000000000 H
   0.8101038853885181    0.5487860180208702    0.3691416947534679 H
   0.1907000000000000    0.4602000000000000    0.1312000000000000 H
   0.6907000000000000    0.0398000000000000    0.6312000000000000 H
   0.3093000000000000    0.0398000000000000    0.8688000000000000 H
   0.1907000000000000    0.5398000000000001    0.6312000000000000 H
   0.8093000000000000    0.5398000000000001    0.8688000000000000 H
   0.2443000000000000    0.9706000000000000    0.2206000000000000 H
   0.7557000000000000    0.9706000000000000    0.2794000000000000 H
   0.7451989158467093    0.5361880411053056    0.2209820878361726 H
   0.2557000000000000    0.4706000000000000    0.2794000000000000 H
   0.7557000000000000    0.0294000000000000    0.7794000000000000 H
   0.2443000000000000    0.0294000000000000    0.7206000000000000 H
   0.2557000000000000    0.5294000000000000    0.7794000000000000 H
   0.7443000000000000    0.5294000000000000    0.7206000000000000 H
   0.5996800000000000    0.3005500000000000    0.4483900000000000 C
   0.4003200000000000    0.3005500000000000    0.0516100000000000 C
   0.0820578129263977    0.6346160311151103    0.4408996177220262 C
   0.9003200000000000    0.8005500000000000    0.0516100000000000 C
   0.4003200000000000    0.6994500000000000    0.5516099999999999 C
   0.5996800000000000    0.6994500000000000    0.9483900000000001 C
   0.9003200000000000    0.1994500000000000    0.5516099999999999 C
   0.0996800000000000    0.1994500000000000    0.9483900000000001 C
   0.3261400000000000    0.1670600000000000    0.2132700000000000 C
   0.6738600000000000    0.1670600000000000    0.2867300000000000 C
   0.8089365639885008    0.7584206609149703    0.2059576095638650 C
   0.1738600000000000    0.6670600000000000    0.2867300000000000 C
   0.6738600000000000    0.8329400000000000    0.7867300000000000 C
   0.3261400000000000    0.8329400000000000    0.7132700000000000 C
   0.1738600000000000    0.3329400000000000    0.7867300000000000 C
   0.8261400000000000    0.3329400000000000    0.7132700000000000 C
   0.3983800000000000    0.2779100000000000    0.2606800000000000 C
   0.6016200000000000    0.2779100000000000    0.2393200000000000 C
   0.8705665942085740    0.8929705999977190    0.2488577987624323 C
   0.1016200000000000    0.7779100000000000    0.2393200000000000 C
   0.6016200000000000    0.7220900000000000    0.7393200000000000 C
   0.3983800000000000    0.7220900000000000    0.7606800000000000 C
   0.1016200000000000    0.2220900000000000    0.7393200000000000 C
   0.8983800000000000    0.2220900000000000    0.7606800000000000 C
   0.6616700000000000    0.4406600000000000    0.4542000000000000 C
   0.3383300000000000    0.4406600000000000    0.0458000000000000 C
   0.1310826460493068    0.7943797562839864    0.4411987208168055 C
   0.8383300000000000    0.9406600000000001    0.0458000000000000 C
   0.3383300000000000    0.5593399999999999    0.5458000000000001 C
   0.6616700000000000    0.5593399999999999    0.9541999999999999 C
   0.8383300000000000    0.0593400000000000    0.5458000000000001 C
   0.1616700000000000    0.0593400000000000    0.9541999999999999 C
   0.6148800000000000    0.5830800000000000    0.4071100000000000 C
   0.3851200000000000    0.5830800000000000    0.0928900000000000 C
   0.1585958610772896   -0.0666129465352855    0.4256916045257067 C
   0.8851200000000000    0.0830800000000000    0.0928900000000000 C
   0.3851200000000000    0.4169200000000000    0.5928899999999999 C
   0.6148800000000000    0.4169200000000000    0.9071100000000001 C
   0.8851200000000000    0.9169200000000000    0.5928899999999999 C
   0.1148799999999999    0.9169200000000000    0.9071100000000001 C
   0.6474500000000000    0.7616100000000000    0.3931500000000000 C
   0.3525500000000000    0.7616100000000000    0.1068500000000000 C
   0.1753506762412999    0.1206493672823266    0.4050092958971805 C
   0.8525500000000000    0.2616100000000001    0.1068500000000000 C
   0.3525500000000000    0.2383900000000000    0.6068500000000000 C
   0.6474500000000000    0.2383900000000000    0.8931500000000000 C
   0.8525500000000000    0.7383900000000000    0.6068500000000000 C
   0.1474500000000001    0.7383900000000000    0.8931500000000000 C
   0.4578900000000000    0.6798600000000000    0.3589000000000000 C
   0.5421100000000000    0.6798600000000000    0.1411000000000000 C
   0.9804935660611918    0.3249172012136222    0.3685077376739114 C
   0.0421100000000000    0.1798600000000001    0.1411000000000000 C
   0.5421100000000000    0.3201400000000000    0.6411000000000000 C
   0.4578900000000000    0.3201400000000000    0.8589000000000000 C
   0.0421100000000000    0.8201400000000000    0.6411000000000000 C
   0.9578900000000000    0.8201400000000000    0.8589000000000000 C
   0.4379900000000000    0.2682900000000000    0.3488100000000000 C
   0.5620100000000000    0.2682900000000000    0.1511900000000000 C
   0.9104003599817018    0.8974150803465472    0.3370829113142655 C
   0.0620100000000000    0.7682899999999999    0.1511900000000000 C
   0.5620100000000000    0.7317100000000001    0.6511899999999999 C
   0.4379900000000000    0.7317100000000001    0.8488100000000001 C
   0.0620100000000000    0.2317100000000000    0.6511899999999999 C
   0.9379900000000000    0.2317100000000000    0.8488100000000001 C
   0.4047000000000000    0.1508100000000000    0.3895100000000000 C
   0.5952999999999999    0.1508100000000000    0.1104900000000000 C
   0.8876975385589138    0.7700222831759652    0.3822830346223017 C
   0.0953000000000000    0.6508100000000000    0.1104900000000000 C
   0.5952999999999999    0.8491900000000000    0.6104900000000000 C
   0.4047000000000000    0.8491900000000000    0.8895100000000000 C
   0.0953000000000000    0.3491900000000000    0.6104900000000000 C
   0.9047000000000001    0.3491900000000000    0.8895100000000000 C
   0.3323200000000000    0.0408100000000000    0.3412600000000000 C
   0.6676800000000001    0.0408100000000000    0.1587400000000000 C
   0.8258566933537443    0.6362602368854835    0.3385127452263434 C
   0.1676800000000000    0.5408100000000000    0.1587400000000000 C
   0.6676800000000001    0.9591900000000000    0.6587400000000000 C
   0.3323200000000000    0.9591900000000000    0.8412600000000000 C
   0.1676800000000000    0.4591900000000000    0.6587400000000000 C
   0.8323199999999999    0.4591900000000000    0.8412600000000000 C
   0.2933000000000000    0.0475000000000000    0.2532800000000000 C
   0.7067000000000000    0.0475000000000000    0.2467200000000000 C
   0.7868553991737712    0.6291375865396012    0.2505406962112149 C
   0.2067000000000000    0.5475000000000000    0.2467200000000000 C
   0.7067000000000000    0.9525000000000000    0.7467200000000001 C
   0.2933000000000000    0.9525000000000000    0.7532799999999999 C
   0.2067000000000000    0.4525000000000000    0.7467200000000001 C
   0.7933000000000000    0.4525000000000000    0.7532799999999999 C
   0.5146800000000000    0.3750400000000000    0.3990400000000000 N
   0.4853200000000000    0.3750400000000000    0.1009600000000000 N
  -0.0080431309110995    0.6781066976910546    0.3893814408004133 N
   0.9853200000000000    0.8750400000000000    0.1009600000000000 N
   0.4853200000000000    0.6249600000000000    0.6009599999999999 N
   0.5146800000000000    0.6249600000000000    0.8990400000000001 N
   0.9853200000000000    0.1249600000000000    0.6009599999999999 N
   0.0146800000000000    0.1249600000000000    0.8990400000000001 N
   0.5247200000000000    0.5438100000000000    0.3669900000000000 N
   0.4752800000000000    0.5438100000000000    0.1330100000000000 N
   0.0731755098306628   -0.1369671527749634    0.3875862115025710 N
   0.9752800000000000    0.0438100000000001    0.1330100000000000 N
   0.4752800000000000    0.4561900000000000    0.6330100000000001 N
   0.5247200000000000    0.4561900000000000    0.8669899999999999 N
   0.9752800000000000    0.9561900000000000    0.6330100000000001 N
   0.0247199999999999    0.9561900000000000    0.8669899999999999 N
   0.6113900000000000    0.1443400000000000    0.4758100000000000 O
   0.3886100000000000    0.1443400000000000    0.0241900000000000 O
   0.1069949165943200    0.4848939218182133    0.4739418519253812 O
   0.8886100000000000    0.6443400000000000    0.0241900000000000 O
   0.3886100000000000    0.8556600000000000    0.5241899999999999 O
   0.6113900000000000    0.8556600000000000    0.9758100000000001 O
   0.8886100000000000    0.3556600000000000    0.5241899999999999 O
   0.1113900000000001    0.3556600000000000    0.9758100000000001 O
