H  C  Ag H  C  N  Cl O 
 1.0000000000000000
    10.7044999999999995    0.0000000000000000    0.0000000000000000
     0.0000000000000000    8.6046999999999993    0.0000000000000000
    -0.0940859949949095    0.0000000000000000   15.6251167351013986
 H   C   Ag  H   C   N   Cl  O  
  32   8   4  24  12   8  12  48
Cartesian
  4.3191874482365442  2.6863873399999996  9.9086215111927913
  1.0329655235559509  6.9887373400000001 13.4972507207685357
  6.3851184953484479  5.9183126599999989  5.6523229527298620
  9.6713404200290398  1.6159626599999997  2.0636937431541158
  5.0021221674372667  2.5315027400000001  8.6497896279910549
  0.3500308043552288  6.8338527399999993 14.7560826039702722
  5.7021837761477245  6.0731972599999997  6.9111548359315966
 10.3542751392297632  1.7708472599999998  0.8048618599523805
  0.3714394162423991  2.4377115099999997  9.9980193928981169
  4.9807135555500963  6.7400615099999994 13.4078528390632101
 10.3328665273425919  6.1669884899999996  5.5629250710245355
  5.7235923880348940  1.8646384899999999  2.1530916248594418
  0.5041728099428530  2.4575023200000001  8.5706211242507564
  4.8479801618496419  6.7598523200000002 14.8352511077105707
 10.2001331336421384  6.1471976799999988  6.9903233396718951
  5.8563257817353493  1.8448476799999991  0.7256933562120820
  2.8623314093146268  2.6889687499999999  7.6782740896529171
  2.4898215624778683  6.9913187499999996  0.1021981423084092
  7.8419745342703635  5.9157312499999994  7.8826703742697362
  8.2144843811071233  1.6133812499999998 15.4587463216142424
  3.5977172276389151  4.0123716099999998  8.1129197343244037
  1.7544357441535796  8.3147216099999994 15.2929524976369251
  7.1065887159460752  4.5923283900000005  7.4480247295982496
  8.9498701994314125  0.2899783900000005  0.2679919662857279
  1.8036755514940710  4.3169779899999998  9.3331284421709668
  3.5484774202984246  0.0146279900000003 14.0727437897903602
  8.9006303920909211  4.2877220099999995  6.2278160217516856
  7.1558285232865657  8.5900720099999983  1.4882006741322924
  2.5572586899224543  3.3816470999999999 10.3458043124311221
  2.7948942818700409  7.6839970999999991 13.0600679195302050
  8.1470472536625369  5.2230528999999999  5.2151401514915303
  7.9094116617149499  0.9207028999999998  2.5008765443924474
  3.2294891031795920  3.1742738299999997  8.4323326247654649
  2.1226638686129031  7.4766238299999994 14.9735396071958622
  7.4748168404053983  5.4304261699999996  7.1286118391571875
  8.5816420749720876  1.1280761699999999  0.5874048567267902
  2.1676219535759609  3.4263915399999996  9.4575026939443365
  3.1845310182165343  7.7287415399999997 13.9483695380169905
  8.5366839900090312  5.1783084599999993  6.1034417699783150
  7.5197749253684565  0.8759584600000000  1.6125749259056621
  8.1669572627176041  3.9630666789999993 11.7469062261944259
  7.8895016526598809  8.2654166789999994 11.5945104696895527
  2.5373486808673862  4.6416333210000005  3.8140382377282260
  2.8148042909251090  0.3392833210000006  3.9664339942331006
  2.7424431827464741  8.2553491799999996 10.1165583916569837
  2.6097097890460206  3.9529991799999999 13.2893138403043434
  7.9618627608385166  0.3493508200000000  5.4443860722656687
  8.0945961545389693  4.6517008199999994  2.2716306236183086
  2.7702743781997956  1.0764479699999998 10.7570322072631832
  2.5818785935926996  5.3787979699999999 12.6488400246981438
  7.9340315653851956  7.5282520299999991  4.8039122566594701
  8.1224273499922912  3.2259020299999999  2.9121044392245081
  4.6371053347610180  0.4500258100000000  9.3457553217712928
  0.7150476370314773  4.7523758099999993 14.0601169101900343
  6.0672006088239714  8.1546741899999997  6.2151891421513596
  9.9892583065535145  3.8523241899999996  1.5008275537326181
  3.6737177998383692  0.7012830500000000  8.1374627400182540
  1.6784351719541264  5.0036330499999995 15.2684094919430731
  7.0305881437466216  7.9034169499999996  7.4234817239043984
  9.0258707716308635  3.6010669499999994  0.2925349719795796
  1.3069957557117273  0.5438170400000000  8.4376586790449561
  4.0451572160807681  4.8461670400000001 14.9682135529163709
  9.3973101878732646  8.0608829599999989  7.1232857848776963
  6.6591487275042232  3.7585329599999993  0.5927309110062812
  0.6754417050402129  0.3872114999999999  9.8602478756735188
  4.6767112667522825  4.6895614999999999 13.5456243562878083
 10.0288642385447773  8.2174884999999982  5.7006965882491327
  6.0275946768327078  3.9151384999999994  2.0153201076348446
  2.6889216530285496  0.5980266500000000  9.9168755493373713
  2.6632313187639456  4.9003766500000001 13.4889966826239558
  8.0153842905564421  8.0066733499999998  5.6440689145852811
  8.0410746248210447  3.7043233499999997  2.0719477812986966
  3.8674657374172576  0.9628659299999999  9.0519445348152541
  1.4846872343752380  5.2652159299999992 14.3539276971460730
  6.8368402061677331  7.6418340699999998  6.5089999291073983
  9.2196187092097528  3.3394840699999997  1.2070167667765794
  1.3337565205706898  0.8811212800000000  9.3468958202047627
  4.0183964512218058  5.1834712800000000 14.0589764117565643
  9.3705494230143014  7.7235787199999990  6.2140486437178897
  6.6859094923631863  3.4212287199999993  1.5019680521660883
  4.2260599865273543  2.4127578799999996  9.0669732143566630
  1.1260929852651409  6.7151078799999997 14.3388990176046640
  6.4782459570576361  6.1919421199999993  6.4939712495659894
  9.5782129583198508  1.8895921200000001  1.2220454463179879
  0.9430493536298376  2.3017572500000001  9.3289354272715865
  4.4091036181626579  6.6041072500000002 14.0769368046897405
  9.7612565899551544  6.3029427499999988  6.2320090366510659
  6.2952023254223342  2.0005927499999991  1.4840076592329119
  7.8756930979926576  1.9822647389999999  8.9992146773310910
  8.1807658173848292  6.2846147389999993 14.3422020185528876
  2.8286128455923332  6.6224352609999997  6.5617297865915614
  2.5235401262001620  2.3200852610000000  1.2187424453697651
  5.6633271455725120  6.0128783129999999 10.4080408215275568
 10.3931317698049757  1.7105283130000000 12.9333758743564200
  5.0409787980124792  2.5918216869999995  5.1529036423950947
  0.3111741737800157  6.8941716869999992  2.6275685895662320
  5.4485987683441959  1.7946822789999999 12.9433049175812691
 10.6078601470332909  6.0970322789999996 10.3981117783027077
  5.2557071752407953  6.8100177209999995  2.6176395463413829
  0.0964457965517002  2.5076677209999994  5.1628326856199438
  7.0487854638507166  2.1141747899999999  7.8443204254930654
  9.0076734515267702  6.4165247899999995 15.4970962703909123
  3.6555204797342742  6.4905252099999995  7.7166240384295870
  1.6966324920582205  2.1881752099999994  0.0638481935317398
  6.4322174415002209  5.7298697299999999 11.5928164283711208
  9.6242414738772659  1.4275197300000013 11.7486002675128578
  4.2720885020847703  2.8748302699999995  3.9681280355515312
  1.0800644697077251  7.1771802699999983  3.8123441964097955
  8.7090233157007493  3.1338317399999998  9.1571697358474697
  7.3474355996767375  7.4361817400000003 14.1842469600365089
  1.9952826278842419  5.4708682599999987  6.4037747280751827
  3.3568703439082532  1.1685182599999993  1.3766975038861440
  6.1656802235049541  7.1952501399999997  9.8006254512194495
  9.8907786918725318  2.8929001400000001 13.5407912446645291
  4.5386257200800371  1.4094498599999994  5.7603190127032038
  0.8135272517124585  5.7117998599999993  2.0201532192581229
  5.3864067508119673  0.4612119200000000 12.4256973942458782
 10.6700521645655186  4.7635619199999999 10.9157193016380987
  5.3178991927730230  8.1434880799999991  3.1352470696767738
  0.0342537790194715  3.8411380799999999  4.6452251622845528
  8.7154458992668999  0.8303535500000000  8.8993119625258217
  7.3410130161105869  5.1327035499999996 14.4421047333581551
  1.9888600443180906  7.7743464499999995  6.6616325013968298
  3.3632929274744048  3.4719964499999993  1.1188397305644966
  4.3009901281324492  6.2031282299999990 10.7759407856041225
  1.0511628436600460  1.9007782299999987 12.6299314463572045
  6.4033158154525420  2.4015717699999999  4.7850036783185299
  9.6531430999249448  6.7039217700000009  2.9310130175654479
  7.0348698661240565  1.8439872099999999 10.1469631616899676
  9.0215890492534303  6.1463372099999987 13.1944535341940110
  3.6694360774609343  6.7607127900000004  5.4139813022326857
  1.6827168943315605  2.4583627900000002  2.3664909297286414
  4.7837543261881326  2.6777826399999998 12.0386912409270330
  0.5683986456043624  6.9801326399999990 11.3671809910342940
  5.9205516173968578  5.9269173600000000  3.5222532229956189
 10.1359072979806282  1.6245673600000006  4.1937634728883584
  5.8081564049892158  4.9442606199999997  9.4746448661244322
 10.2483025103882710  0.6419106200000000 13.8667718297595464
  4.8961495385957754  3.6604393799999997  6.0862995977982211
  0.4560034331967198  7.9627893799999994  1.6941726341631060
  4.8372758559060580  1.8654989599999998 14.2227998832466476
  0.5148771158864375  6.1678489599999997  9.1830723487146795
  5.8670300876789341  6.7392010399999993  1.3381445806760053
 10.1894288276985527  2.4368510400000001  6.3778721152079720
  6.8336289143846578  2.1632215800000001 13.0685621857682204
  9.2228300009928290  6.4655715799999998 10.2728545101157582
  3.8706770292003325  6.4414784199999993  2.4923822781544316
  1.4814759425921622  2.1391284199999991  5.2880899538068951
